22
Extracted from mol_107.out
B -2.420488 0.833934 -0.295729
C -0.893119 0.485817 -0.131036
C -0.383394 -0.830974 0.013182
C 1.001582 -1.015351 0.150257
C 1.915916 0.047781 0.138118
C 1.407904 1.345959 -0.015163
C 0.034508 1.547551 -0.140631
C 3.398233 -0.189612 0.296053
C -1.286077 -2.044093 0.028593
O -3.286826 -0.056754 -0.859808
O -2.938924 2.044757 0.092301
H 1.384531 -2.034260 0.269096
H 2.090505 2.201076 -0.039208
H -0.325044 2.574543 -0.273976
H 3.973193 0.323329 -0.492753
H 3.763127 0.200130 1.262463
H 3.645823 -1.260963 0.254501
H -2.088142 -1.944946 0.777036
H -0.715973 -2.957882 0.253727
H -1.791174 -2.177829 -0.940672
H -4.182663 0.305733 -0.902897
H -2.303500 2.602052 0.556544