17
Extracted from mol_460.out
B -1.790179 0.471375 -0.215341
C -0.252919 0.218183 -0.025105
C 0.252905 -1.120936 0.001495
C 1.624937 -1.386093 0.167207
C 2.524281 -0.340372 0.311045
C 2.079232 0.985689 0.293148
C 0.718962 1.242645 0.127948
Cl 0.278697 2.943781 0.122990
O -0.529733 -2.206746 -0.128317
O -2.591324 -0.661055 -0.337062
O -2.335613 1.714896 -0.263725
H 1.945418 -2.429435 0.177768
H 3.589720 -0.550552 0.439838
H 2.774463 1.817998 0.405800
H -1.459058 -1.927781 -0.235983
H -3.537381 -0.518313 -0.458224
H -3.292407 1.746714 -0.383481