19
Extracted from mol_432.out
B -2.521964 0.651040 -0.250061
C -1.067142 0.032739 -0.143872
C -0.872198 -1.335901 -0.391752
C 0.393626 -1.917353 -0.275545
C 1.495093 -1.144255 0.078467
C 1.344793 0.233869 0.320655
C 0.058206 0.794342 0.207364
F -0.112724 2.094980 0.418905
C 2.531604 1.069750 0.681391
O 2.535034 2.262266 0.856549
O 3.655622 0.323307 0.794217
Br 0.612036 -3.783610 -0.605359
O -2.953449 1.524040 0.691056
O -3.382580 0.274057 -1.244513
H -1.723847 -1.965417 -0.662664
H 2.484125 -1.591325 0.168285
H 4.368718 0.942673 1.023815
H -3.858518 1.822659 0.524442
H -2.986434 -0.287861 -1.920811