20
Extracted from mol_30.out
B -3.004774 0.108246 -0.113696
C -1.438709 -0.002470 -0.009252
C -0.848959 -0.972192 0.823492
C 0.536308 -1.090774 0.931964
C 1.402165 -0.244168 0.212326
C 0.818690 0.730299 -0.622904
C -0.565132 0.841430 -0.725324
C 2.858484 -0.411070 0.361730
C 3.829032 0.292449 -0.241468
O -3.765601 -0.738216 0.637456
O -3.655170 1.006794 -0.917763
H -1.495956 -1.643172 1.394202
H 0.965025 -1.854763 1.587680
H 1.454461 1.408120 -1.197289
H -0.967158 1.617163 -1.388016
H 3.155545 -1.210315 1.051413
H 3.620462 1.105210 -0.943272
H 4.882290 0.073118 -0.048532
H -4.710819 -0.590656 0.499715
H -3.070187 1.574968 -1.431428