20
Extracted from mol_413.out
B -2.510854 0.772517 0.046513
C -1.158607 -0.032283 0.120833
C 0.071603 0.651338 0.099251
C 1.313476 -0.007563 0.148677
C 1.297526 -1.413946 0.234284
C 0.095758 -2.125300 0.273421
C -1.118277 -1.436121 0.213329
B 2.672140 0.804877 0.113301
O 3.816806 0.281959 -0.414490
O 2.769765 2.071016 0.608532
O -2.465098 2.126063 0.200116
O -3.731630 0.191838 -0.168955
H 0.042640 1.743639 0.025856
H 2.241493 -1.967482 0.291158
H 0.105067 -3.215714 0.355476
H -2.048865 -2.014521 0.253400
H 3.679921 -0.572264 -0.838852
H 1.962167 2.369842 1.041962
H -3.339195 2.530551 0.117135
H -3.695836 -0.758446 -0.326786