16
Extracted from mol_458.out
B 2.106006 0.004289 0.354186
C 0.530642 0.012390 0.087176
C -0.388707 0.912816 0.661485
C -1.763792 0.840412 0.375503
C -2.245530 -0.154912 -0.481604
C -1.358538 -1.067791 -1.049797
C 0.005508 -0.975977 -0.768817
Cl -2.895948 1.967357 1.068759
Cl 0.171581 2.169050 1.754696
O 2.674697 0.318837 1.543042
O 2.958733 -0.397413 -0.631755
H -3.316179 -0.199950 -0.688984
H -1.735456 -1.851065 -1.711994
H 0.686831 -1.707178 -1.214072
H 2.040953 0.662903 2.185303
H 2.529200 -0.533768 -1.483130