18
Extracted from mol_237.out
B -2.587656 0.187783 0.028420
C -1.020797 0.077352 0.134017
C -0.377103 -1.142317 0.428480
C 1.007227 -1.251690 0.528147
C 1.832213 -0.124609 0.324420
C 1.207730 1.104707 0.022629
C -0.179199 1.191659 -0.061857
N 3.204567 -0.212385 0.459871
O -3.372678 -0.873766 -0.327308
O -3.257312 1.351643 0.285756
H -0.976686 -2.042769 0.604502
H 1.465062 -2.215238 0.772334
H 1.824023 1.993293 -0.145530
H -0.617786 2.164779 -0.310676
H 3.622518 -1.132791 0.397487
H 3.763065 0.523881 0.045484
H -2.855743 -1.638276 -0.604326
H -2.681444 2.038744 0.638979