29
Extracted from mol_448.out
B 4.283200 -0.557498 -0.296753
C 2.754329 -0.326576 -0.039325
C 2.013999 -1.078904 0.893248
C 0.665227 -0.848516 1.105706
C -0.070733 0.127784 0.388718
C 0.682012 0.880295 -0.544629
C 2.044547 0.665280 -0.741293
N -1.419424 0.355009 0.635564
C -2.078356 1.602543 0.270010
C -3.020526 1.406271 -0.920567
O -3.953672 0.378144 -0.651901
C -3.321540 -0.849716 -0.345006
C -2.385814 -0.720868 0.861342
F 0.039424 -1.577430 2.059639
O 5.013175 -1.568117 0.275108
O 4.935537 0.292079 -1.143294
H 2.474277 -1.854776 1.514260
H 0.178430 1.639645 -1.144664
H 2.575399 1.274255 -1.477164
H -1.336837 2.387162 0.068734
H -2.683572 1.938634 1.134348
H -3.600001 2.322698 -1.115615
H -2.433022 1.166039 -1.831832
H -4.122065 -1.576972 -0.134955
H -2.743417 -1.213731 -1.220932
H -2.986485 -0.488679 1.761133
H -1.871199 -1.670296 1.042301
H 4.500023 -2.157778 0.838667
H 5.867084 0.054017 -1.240848