26
Extracted from mol_262.out
B -1.508704 -1.429601 -1.050146
C -1.585568 -0.029247 -0.319913
C -2.851879 0.576647 -0.204510
C -3.034894 1.787428 0.466755
C -1.936127 2.428638 1.042856
C -0.666465 1.855666 0.936201
C -0.477229 0.639235 0.259773
C 0.916858 0.093378 0.193198
C 1.542894 -0.373113 1.366131
C 2.851597 -0.862977 1.359150
C 3.574001 -0.891978 0.163422
C 2.985288 -0.430444 -1.015814
C 1.673493 0.055055 -0.997407
Cl 0.991851 0.636904 -2.501185
O -0.510235 -2.347902 -0.882044
O -2.543952 -1.766659 -1.873458
H -3.710863 0.073303 -0.654962
H -4.032288 2.229599 0.540399
H -2.062356 3.377724 1.571201
H 0.197741 2.363750 1.372829
H 0.974453 -0.348880 2.299623
H 3.304221 -1.221034 2.287128
H 4.598414 -1.272470 0.143157
H 3.535097 -0.439330 -1.958653
H 0.195845 -2.056026 -0.291700
H -2.421195 -2.647667 -2.252029