20
Extracted from mol_252.out
B -2.839986 -0.042574 -0.389511
C -1.293146 -0.298077 -0.216763
C -0.399648 0.777834 -0.288021
C 0.984908 0.588097 -0.126929
C 1.490321 -0.700946 0.103000
C 0.587900 -1.763890 0.164743
C -0.780802 -1.592803 0.012899
F 1.077636 -2.997036 0.377961
O 1.757705 1.698159 -0.208499
C 3.155449 1.581892 -0.061045
O -3.795908 -0.974453 -0.087181
O -3.250503 1.168625 -0.856934
H -0.764170 1.790115 -0.470930
H 2.551502 -0.910075 0.232872
H -1.418303 -2.480024 0.061205
H 3.432349 1.182053 0.931619
H 3.598942 0.935537 -0.840394
H 3.566638 2.595385 -0.163117
H -3.447000 -1.788244 0.294206
H -4.213881 1.230427 -0.906515