19
Extracted from mol_355.out
B 1.962480 -0.105152 0.299478
C 0.410598 -0.332411 0.116473
C -0.506272 0.722880 -0.125299
C -1.861051 0.385279 -0.249468
C -2.341794 -0.917942 -0.144631
C -1.435467 -1.949812 0.097614
C -0.076854 -1.651030 0.220823
F -2.757756 1.364173 -0.482612
C -0.092183 2.169619 -0.251472
O 2.883543 -1.052127 -0.067547
O 2.432346 1.040747 0.866613
H -3.413741 -1.097144 -0.252908
H -1.789476 -2.979607 0.191559
H 0.621442 -2.468972 0.427063
H -0.886102 2.767813 -0.717200
H 0.827580 2.273125 -0.844181
H 0.127496 2.602031 0.738462
H 2.497809 -1.805666 -0.529791
H 3.397404 1.034196 0.934662