20
Extracted from mol_362.out
B -2.782706 0.678142 0.295011
C -1.336636 0.068522 0.032046
C -1.220593 -1.227070 -0.495022
C 0.002305 -1.825684 -0.765753
C 1.180738 -1.119803 -0.509878
C 1.133454 0.176333 0.024689
C -0.133998 0.740613 0.292239
Br -0.168223 2.508523 1.031838
O 2.224256 0.925846 0.303650
C 3.509596 0.408143 0.040704
F -2.341623 -1.932369 -0.729395
O -3.662515 0.699471 -0.737225
O -3.179442 1.163282 1.505878
H 0.026074 -2.838075 -1.173432
H 2.139462 -1.591008 -0.727377
H 3.712896 -0.506269 0.627448
H 4.223913 1.187740 0.337752
H 3.650351 0.183023 -1.032183
H -4.510339 1.085828 -0.476345
H -2.466970 1.214815 2.155352