45
Extracted from mol_442.out
B 7.139755 -0.587829 -0.878343
C 5.601905 -0.403450 -0.596678
C 4.860567 0.657484 -1.153771
C 3.501946 0.837865 -0.908294
C 2.785844 -0.067372 -0.084648
C 3.518353 -1.141934 0.480681
C 4.880004 -1.287702 0.229191
N 1.432859 0.085825 0.163268
C 0.613825 1.016328 -0.600148
C -0.830891 0.530444 -0.716266
N -1.401863 0.292181 0.607234
C -0.476107 0.102298 1.716817
C 0.781177 -0.630385 1.255922
C -2.745937 0.127693 0.827654
O -3.229048 -0.109197 1.919395
O -3.435458 0.262854 -0.325813
C -4.897462 0.149525 -0.370750
C -5.536167 1.244294 0.491073
C -5.211575 0.373518 -1.851696
C -5.327719 -1.254844 0.067995
O 7.973554 -1.221232 0.000554
O 7.733405 -0.124289 -2.019424
H 5.365511 1.397832 -1.785019
H 3.001437 1.706198 -1.338055
H 3.014339 -1.885390 1.098897
H 5.390531 -2.147508 0.678168
H 0.631079 2.037246 -0.166279
H 1.014878 1.098546 -1.621142
H -1.424674 1.288261 -1.247763
H -0.861923 -0.390059 -1.328983
H -0.194492 1.073443 2.166083
H -0.989874 -0.476063 2.495965
H 1.470982 -0.700199 2.113196
H 0.520039 -1.668272 0.966042
H -5.178512 2.237837 0.176532
H -6.630662 1.221773 0.368152
H -5.296790 1.100688 1.552538
H -4.713306 -0.386149 -2.473527
H -4.866789 1.367230 -2.177281
H -6.296770 0.308289 -2.024571
H -6.413814 -1.371719 -0.074015
H -4.820115 -2.018855 -0.542342
H -5.087526 -1.427360 1.124772
H 7.540667 -1.433908 0.834684
H 7.094817 0.216058 -2.655639