19
Extracted from mol_322.out
B -2.331435 -0.000679 -1.075188
C -1.044284 0.089139 -0.109193
C -1.036181 0.466145 1.251871
C 0.129278 0.534803 2.016562
C 1.357343 0.227070 1.428680
C 1.439896 -0.157886 0.086773
C 0.231231 -0.212837 -0.615792
F 0.333143 -0.600146 -1.916710
C 2.738989 -0.502171 -0.592566
Br -2.660269 0.899572 2.195832
O -3.467435 0.704765 -0.857201
O -2.328418 -0.787076 -2.182353
H 0.078798 0.828117 3.066002
H 2.270362 0.285544 2.027528
H 2.726160 -1.533064 -0.983009
H 3.583510 -0.408759 0.105051
H 2.927580 0.159681 -1.453773
H -3.473878 1.202640 -0.029144
H -1.474389 -1.194856 -2.363368