38
Extracted from mol_372.out
B 6.687379 0.430185 0.366558
C 5.133416 0.227573 0.193699
C 4.314267 1.078997 -0.560861
C 2.940649 0.897918 -0.695405
C 2.300802 -0.176236 -0.051912
C 3.096947 -1.050311 0.714295
C 4.471818 -0.846900 0.822486
C 0.834001 -0.379077 -0.183319
C 0.159607 -0.080986 -1.382249
C -1.216478 -0.276725 -1.503672
C -1.980494 -0.775023 -0.436151
C -1.307975 -1.072155 0.760195
C 0.068315 -0.880771 0.886007
C -3.478213 -0.946345 -0.556844
C -4.276642 0.299613 -0.129060
C -5.793593 0.124602 -0.253109
C -6.586412 1.362433 0.170620
F 4.862818 2.120302 -1.204730
O 7.220139 1.678231 0.412980
O 7.533766 -0.638483 0.520185
H 2.378853 1.622111 -1.287892
H 2.638337 -1.908625 1.209654
H 5.055202 -1.545706 1.431759
H 0.724853 0.283040 -2.243722
H -1.706867 -0.048738 -2.455169
H -1.874119 -1.459432 1.613087
H 0.553242 -1.103612 1.839559
H -3.736104 -1.195632 -1.600999
H -3.800811 -1.806464 0.055744
H -3.951838 1.163245 -0.737657
H -4.017126 0.554991 0.914604
H -6.109783 -0.743129 0.354962
H -6.044584 -0.135960 -1.297980
H -6.385414 1.626789 1.222709
H -6.321204 2.238978 -0.444585
H -7.672012 1.201809 0.069827
H 8.180288 1.652713 0.526960
H 7.104968 -1.493223 0.396227