27
Extracted from mol_13.out
B -1.631043 1.351471 -1.051161
C -1.338462 -0.040236 -0.365542
C -2.115656 -1.132741 -0.803834
C -2.015837 -2.393185 -0.212072
C -1.116652 -2.587793 0.839403
C -0.319463 -1.525857 1.272077
C -0.406858 -0.252375 0.683712
C 0.574914 0.829275 1.141225
N 1.879035 0.847008 0.480204
C 1.857855 1.225816 -0.918477
C 2.738055 -0.284168 0.759380
O -1.875979 2.513164 -0.359807
O -1.712446 1.406541 -2.410001
H -2.820604 -0.983040 -1.626689
H -2.639693 -3.218440 -0.566393
H -1.033439 -3.565963 1.321596
H 0.385762 -1.686093 2.093215
H 0.755364 0.711703 2.223940
H 0.133066 1.827400 0.995941
H 1.300251 2.168281 -1.046939
H 2.889556 1.401166 -1.267095
H 1.402495 0.468898 -1.594734
H 2.801314 -0.452556 1.847640
H 2.413630 -1.239685 0.288997
H 3.757470 -0.069748 0.395992
H -1.896866 2.392751 0.596565
H -1.965770 2.288403 -2.717141