29
Extracted from mol_330.out
B 4.227857 0.404061 0.469856
C 2.742138 0.153603 0.023184
C 2.076624 -1.066510 0.248863
C 0.757506 -1.275142 -0.155619
C 0.053079 -0.250017 -0.807014
C 0.701091 0.971100 -1.056461
C 2.018837 1.164313 -0.641527
O -1.210597 -0.477295 -1.276962
C -2.393673 -0.155623 -0.487039
C -2.463853 1.350467 -0.205244
C -2.399262 -0.953665 0.822512
C -3.546647 -0.590860 -1.392850
O 4.743095 1.661069 0.343047
O 5.046528 -0.569851 0.980488
H 2.590757 -1.890313 0.758450
H 0.262449 -2.233968 0.010873
H 0.162647 1.754382 -1.593752
H 2.509908 2.120305 -0.841207
H -1.627028 1.684355 0.426925
H -3.400429 1.594021 0.321043
H -2.440191 1.922937 -1.145495
H -2.345861 -2.034891 0.620527
H -1.550559 -0.678118 1.467092
H -3.326154 -0.754991 1.383549
H -3.468673 -1.665136 -1.619278
H -3.513423 -0.038062 -2.344076
H -4.517152 -0.401516 -0.908534
H 5.664915 1.701490 0.630778
H 4.646074 -1.446148 1.007751