30
Extracted from mol_307.out
B -4.518878 1.056104 -0.722353
C -3.390569 0.150517 -0.074157
C -2.036536 0.410412 -0.321892
C -1.019654 -0.376867 0.252015
C -1.363113 -1.454288 1.083375
C -2.716583 -1.704344 1.317036
C -3.729850 -0.930435 0.766955
F -3.037328 -2.741119 2.107218
O 0.251928 -0.024464 -0.050005
C 1.338993 -0.767978 0.499183
C 2.630842 -0.163027 0.013119
C 3.235263 -0.623309 -1.165853
C 4.415179 -0.039883 -1.635598
C 5.002615 1.015199 -0.930271
C 4.406395 1.483357 0.245255
C 3.227091 0.897148 0.712115
O -4.368231 1.625747 -1.950691
O -5.694863 1.308395 -0.081491
H -1.722477 1.246646 -0.952431
H -0.625497 -2.103676 1.552938
H -4.768153 -1.194955 0.982520
H 1.264088 -1.825044 0.184989
H 1.288880 -0.738198 1.602971
H 2.777009 -1.447502 -1.720514
H 4.878192 -0.410107 -2.554194
H 5.926822 1.471369 -1.295191
H 4.862477 2.306958 0.801075
H 2.761914 1.265996 1.631089
H -3.561174 1.345501 -2.397288
H -5.714782 0.961845 0.817764