20
Extracted from mol_108.out
B -1.706565 1.452799 0.266749
C -0.922722 0.090625 0.090574
C 0.484814 0.016891 -0.041932
C 1.133087 -1.215896 -0.196917
C 0.386924 -2.398165 -0.222122
C -1.000747 -2.343005 -0.092522
C -1.644485 -1.112873 0.061611
Cl -1.936578 -3.823989 -0.123654
O 1.166109 1.208412 -0.010313
C 2.574530 1.223951 -0.135187
O -3.064874 1.384718 0.386482
O -1.094648 2.667712 0.302543
H 2.216437 -1.277201 -0.299824
H 0.886798 -3.361191 -0.342789
H -2.730713 -1.078680 0.161886
H 2.900795 0.804703 -1.103105
H 2.881709 2.276985 -0.078955
H 3.061216 0.664242 0.682768
H -3.456846 2.262094 0.488617
H -0.134243 2.557868 0.206090