26
Extracted from mol_204.out
B 4.013414 -0.216402 -0.164786
C 2.464235 -0.059260 -0.278260
C 1.828960 0.123773 -1.525873
C 0.450006 0.261742 -1.630895
C -0.358448 0.222556 -0.478271
C 0.249322 0.039080 0.776433
C 1.638154 -0.095914 0.858488
O -1.689057 0.383995 -0.686721
C -2.638495 0.312478 0.383765
C -3.868794 1.074442 -0.093929
C -2.944908 -1.142263 0.738638
O 4.561665 -0.393959 1.081330
O 4.758914 -0.170130 -1.316309
H 2.438670 0.157816 -2.433037
H -0.039136 0.405401 -2.597201
H -0.345203 -0.000255 1.689782
H 2.095043 -0.237348 1.842008
H -2.223960 0.832079 1.267102
H -4.645474 1.082715 0.686744
H -4.286661 0.601891 -0.997357
H -3.607199 2.114659 -0.340316
H -3.676413 -1.193319 1.561195
H -2.039010 -1.681609 1.053406
H -3.367682 -1.663724 -0.135211
H 5.521203 -0.486226 1.104614
H 5.710856 -0.272218 -1.201451