16
Extracted from mol_136.out
B 1.907274 -0.256172 -0.010068
C 0.338184 -0.032937 -0.001976
C -0.532666 -1.117861 0.125785
C -1.920028 -0.999484 0.138930
C -2.476025 0.276640 0.018158
C -1.655209 1.400002 -0.111982
C -0.267888 1.225290 -0.119795
Cl 0.757182 2.644206 -0.283854
F 0.008590 -2.346742 0.242973
O 2.550880 -0.232388 1.190113
O 2.502615 -0.478497 -1.214761
H -2.536310 -1.894419 0.242196
H -3.562135 0.398688 0.025772
H -2.078195 2.401106 -0.206452
H 3.505485 -0.373329 1.160345
H 3.458245 -0.614101 -1.195384