23
Extracted from mol_405.out
B -3.269201 0.747147 -0.503663
C -1.964572 -0.053246 -0.080242
C -1.913201 -1.296935 0.584195
C -0.708059 -1.914659 0.909235
C 0.506989 -1.306558 0.578532
C 0.501234 -0.069422 -0.083211
C -0.728239 0.531470 -0.398204
O 1.613702 0.610993 -0.453644
C 2.897316 0.072133 -0.176844
C 3.938693 1.041255 -0.703640
Cl -3.388537 -2.167239 1.054605
O -4.548983 0.342062 -0.285668
O -3.070732 1.939040 -1.139205
H -0.714574 -2.877283 1.423958
H 1.438085 -1.808470 0.842617
H -0.710616 1.493817 -0.912653
H 3.003878 -0.918335 -0.660100
H 3.017522 -0.078125 0.913503
H 3.838590 2.022965 -0.215416
H 3.822857 1.183660 -1.789191
H 4.951523 0.655499 -0.508073
H -4.603454 -0.511421 0.169983
H -3.910220 2.361650 -1.364009