25
Extracted from mol_44.out
B -2.373678 -1.794926 -0.019745
C -1.868466 -0.270442 -0.054081
C -2.915158 0.670048 -0.158034
C -2.698295 2.048008 -0.200403
C -1.395517 2.544338 -0.144467
C -0.331678 1.651392 -0.047777
C -0.542411 0.257558 0.001450
C 0.681741 -0.599238 0.113867
O 0.713076 -1.809671 0.276918
O 1.821699 0.097409 0.025228
C 3.056341 -0.635461 0.136698
C 4.197953 0.352952 0.019500
O -1.625616 -2.898746 0.173182
O -3.725763 -1.955234 -0.197110
H -3.936677 0.290534 -0.207829
H -3.548235 2.731874 -0.278509
H -1.204679 3.620234 -0.176879
H 0.688465 2.030554 -0.006554
H 3.086187 -1.400552 -0.655881
H 3.066371 -1.169755 1.100525
H 4.153586 1.106170 0.821598
H 4.171376 0.875843 -0.949250
H 5.159845 -0.177645 0.098372
H -0.673046 -2.672759 0.272519
H -3.957421 -2.892486 -0.156089