30
Extracted from mol_293.out
B 1.900140 0.692142 1.951734
C 2.368608 0.679053 0.418087
C 1.528023 0.249170 -0.645274
C 1.956284 0.248949 -1.981190
C 3.248402 0.682687 -2.292144
C 4.112394 1.115707 -1.289729
C 3.643436 1.098743 0.021711
F 4.510695 1.534934 0.972340
O 0.276566 -0.167841 -0.288118
C -0.716120 -0.426894 -1.275409
C -2.050457 -0.655522 -0.604943
C -2.939596 -1.606741 -1.125354
C -4.202222 -1.789182 -0.553335
C -4.584901 -1.028925 0.555434
C -3.699465 -0.085561 1.086788
C -2.442071 0.105455 0.507988
O 0.717660 0.147083 2.335383
O 2.661391 1.249825 2.930901
H 1.300517 -0.092416 -2.780897
H 3.581146 0.679352 -3.333193
H 5.126225 1.461242 -1.497108
H -0.435067 -1.308566 -1.878768
H -0.773995 0.440965 -1.960041
H -2.641962 -2.215298 -1.984889
H -4.884011 -2.535492 -0.969722
H -5.568606 -1.175685 1.009125
H -3.987619 0.506786 1.959189
H -1.752681 0.836458 0.936542
H 0.247363 -0.234607 1.579356
H 3.499923 1.594180 2.601911