29
Extracted from mol_297.out
B 4.379761 0.384260 0.602899
C 2.834170 0.262390 0.393119
C 1.909964 1.192495 0.905695
C 0.536165 1.076329 0.711623
C -0.000565 -0.012452 -0.020547
C 0.919170 -0.958056 -0.541767
C 2.287544 -0.811525 -0.338888
N -1.363092 -0.146004 -0.219339
C -2.331743 0.650722 0.521728
C -3.656849 -0.100093 0.629382
O -4.215409 -0.435042 -0.627299
C -3.276001 -0.616655 -1.670665
C -1.911354 -1.094403 -1.180579
O 4.975990 1.345168 1.382521
O 5.200669 -0.514738 -0.018757
H 2.262158 2.063644 1.472013
H -0.120617 1.850049 1.110621
H 0.558992 -1.827761 -1.092566
H 2.964664 -1.563317 -0.753637
H -1.961275 0.833689 1.543586
H -2.497213 1.644323 0.056546
H -3.501408 -1.015134 1.236201
H -4.392724 0.525540 1.160851
H -3.143471 0.328262 -2.235641
H -3.696990 -1.359497 -2.367920
H -1.243681 -1.168936 -2.054353
H -1.998257 -2.114745 -0.754076
H 4.351837 1.932473 1.823229
H 6.129566 -0.350986 0.191129