19
Extracted from mol_435.out
B 2.722768 0.293571 -0.228136
C 1.158134 0.129136 -0.093047
C 0.470636 -0.837734 -0.850737
C -0.910156 -0.998106 -0.745460
C -1.688603 -0.204112 0.121743
C -1.010340 0.761005 0.879716
C 0.367083 0.904162 0.759225
F 0.961302 1.859578 1.523938
C -3.178922 -0.377009 0.235543
Cl -1.692934 -2.226940 -1.724230
O 3.365090 -0.536825 -1.096790
O 3.448329 1.210980 0.470820
H 1.034782 -1.474232 -1.534613
H -1.552227 1.409746 1.571388
H -3.670111 -0.217956 -0.738566
H -3.606909 0.327575 0.962684
H -3.434218 -1.402959 0.547860
H 4.316818 -0.369232 -1.118290
H 2.899477 1.749353 1.056954