19
Extracted from mol_363.out
B -2.417119 -0.577575 -0.146290
C -0.973251 0.033377 0.024133
C 0.160220 -0.768179 -0.192549
C 1.465406 -0.267699 -0.062323
C 1.632683 1.076667 0.302585
C 0.513811 1.883656 0.527593
C -0.778022 1.378429 0.392032
Br 0.765212 3.711317 1.032054
C 2.660105 -1.157911 -0.309758
O -2.532597 -1.926659 -0.298014
O -3.563036 0.170069 -0.157397
H 0.013736 -1.815372 -0.471715
H 2.635102 1.495982 0.413824
H -1.624631 2.042596 0.587924
H 3.607887 -0.621556 -0.154011
H 2.650930 -2.031612 0.363284
H 2.657914 -1.547858 -1.341526
H -3.453120 -2.199399 -0.411304
H -3.421233 1.121728 -0.098541