19
Extracted from mol_34.out
B -2.696722 -0.248220 0.559696
C -1.140917 -0.077150 0.337173
C -0.498737 0.032308 -0.911262
C 0.888987 0.144499 -1.024924
C 1.681110 0.145945 0.131198
C 1.072754 0.052126 1.391006
C -0.313263 -0.048176 1.479597
C 3.168738 0.255287 0.066756
O 3.898796 0.262963 1.030373
O 3.638905 0.346888 -1.195332
Cl -1.424626 0.083188 -2.402135
O -3.226955 0.417527 1.630517
O -3.406930 -1.080118 -0.251537
H 1.349870 0.233337 -2.008193
H 1.702224 0.064273 2.282734
H -0.784644 -0.107725 2.463740
H 4.606166 0.412921 -1.124228
H -4.165198 0.264951 1.797570
H -4.349557 -1.154824 -0.058454