35
Extracted from mol_57.out
B 6.048084 -0.338928 0.044894
C 4.502648 -0.096766 -0.069959
C 3.752587 0.566201 0.924949
C 2.383041 0.771773 0.806212
C 1.699746 0.312505 -0.335425
C 2.418044 -0.350799 -1.344944
C 3.794441 -0.544797 -1.199552
O 0.367379 0.554485 -0.372252
C -0.406162 0.118646 -1.482066
C -1.858624 0.501893 -1.239842
C -2.495029 -0.184378 -0.027210
C -3.950516 0.225999 0.213894
C -4.592091 -0.456058 1.426848
C -6.044580 -0.040352 1.666694
O 6.680205 -1.012443 -0.960915
O 6.814650 0.087037 1.099734
H 4.244194 0.939258 1.831563
H 1.810879 1.285824 1.581758
H 1.916844 -0.716757 -2.241598
H 4.341307 -1.062962 -1.991791
H -0.307776 -0.977758 -1.601527
H -0.030732 0.590657 -2.409473
H -1.915838 1.598887 -1.124245
H -2.426369 0.255041 -2.155013
H -1.891940 0.043523 0.868308
H -2.439918 -1.281568 -0.160004
H -4.550667 0.003173 -0.689005
H -4.003292 1.323667 0.343159
H -4.538691 -1.552775 1.296410
H -3.990031 -0.233216 2.326880
H -6.127882 1.046264 1.839447
H -6.680581 -0.284184 0.798592
H -6.472370 -0.550120 2.545199
H 7.626966 -1.103293 -0.789861
H 6.322077 0.562318 1.778101