16
Extracted from mol_280.out
B 1.974025 0.369249 -0.205940
C 0.415867 0.070822 -0.073345
C -0.113614 -1.112612 -0.607742
C -1.465558 -1.444567 -0.552333
C -2.350999 -0.561166 0.064627
C -1.866978 0.622232 0.616738
C -0.503007 0.930011 0.554474
Br 0.067304 2.572344 1.345853
F -2.720455 1.462066 1.208858
F 0.725227 -1.986666 -1.185719
O 2.518949 0.351727 -1.446652
O 2.775576 0.631239 0.864411
H -1.806542 -2.385003 -0.988798
H -3.420065 -0.773826 0.130935
H 3.467641 0.541358 -1.427136
H 2.302628 0.712792 1.701771