16
Extracted from mol_135.out
B -2.114120 0.041490 -0.073136
C -0.506871 0.009730 -0.016909
C 0.237536 -1.187123 -0.089812
C 1.633145 -1.235111 -0.049920
C 2.349582 -0.045766 0.080528
C 1.672636 1.170629 0.164009
C 0.276737 1.176751 0.108952
Cl -0.498374 2.759312 0.218442
Cl -0.589195 -2.738719 -0.252455
O -2.789395 0.959037 -0.809871
O -2.874742 -0.848105 0.613092
H 2.142930 -2.197159 -0.118629
H 3.441572 -0.067027 0.117549
H 2.213507 2.112227 0.268762
H -2.227890 1.652738 -1.176147
H -2.367056 -1.562906 1.015545