16
Extracted from mol_139.out
B 2.091830 -0.333375 0.308854
C 0.545382 -0.054541 0.097445
C -0.272154 -0.997815 -0.554509
C -1.635079 -0.752068 -0.736946
C -2.218891 0.436206 -0.288252
C -1.415424 1.381986 0.355817
C -0.053831 1.136523 0.550438
Br -2.718779 -2.058539 -1.611772
O 2.827570 -1.044750 -0.590547
O 2.762875 0.126062 1.402464
H 0.148892 -1.941993 -0.910587
H -3.284377 0.618084 -0.440679
H -1.862002 2.317045 0.704831
H 0.556578 1.896249 1.049313
H 2.341083 -1.265196 -1.392828
H 2.186327 0.536123 2.056957