41
Extracted from mol_257.out
B 5.849646 -0.935866 0.211144
C 4.371670 -0.390884 0.141829
C 3.246708 -1.157246 0.466626
C 1.939468 -0.691208 0.412262
C 1.693392 0.631667 0.008926
C 2.799016 1.432640 -0.325832
C 4.099945 0.931734 -0.259927
C 0.279815 1.181230 -0.062727
C -0.596583 0.444147 -1.099829
C -2.009807 1.040336 -1.177369
C -2.733807 1.071066 0.186949
C -1.837748 1.791653 1.217351
C -0.423470 1.201189 1.312611
C -3.196561 -0.315189 0.683448
C -4.294516 -0.975701 -0.159452
C -4.782685 -2.305230 0.420375
F 3.425763 -2.448571 0.866137
O 6.171146 -2.204876 0.593791
O 6.853936 -0.079014 -0.132842
H 1.131601 -1.372150 0.688225
H 2.632887 2.466238 -0.642395
H 4.943557 1.574063 -0.524615
H 0.361029 2.231333 -0.398680
H -0.113766 0.489509 -2.090523
H -0.650653 -0.627191 -0.837653
H -2.607453 0.491776 -1.923925
H -1.934874 2.076755 -1.554239
H -3.647943 1.680927 0.063466
H -1.756373 2.856150 0.930562
H -2.318103 1.777648 2.211046
H -0.468800 0.174223 1.715764
H 0.181624 1.782497 2.028543
H -3.571941 -0.201065 1.717413
H -2.338555 -1.007349 0.758609
H -5.147773 -0.278408 -0.252127
H -3.931710 -1.143199 -1.188826
H -5.571102 -2.754732 -0.204910
H -3.960225 -3.037132 0.494329
H -5.196771 -2.173831 1.434613
H 5.388963 -2.728158 0.815932
H 7.721048 -0.499783 -0.059861