25
Extracted from mol_422.out
B 4.048539 -0.226667 -0.142718
C 2.476850 -0.164270 -0.075094
C 1.727114 -0.892674 0.867015
C 0.334405 -0.826703 0.911004
C -0.375764 -0.020998 0.000603
C 0.366012 0.713509 -0.945226
C 1.758000 0.643770 -0.977740
C -1.858133 0.053241 0.037656
C -2.643832 -1.079008 0.337791
N -3.975167 -1.076957 0.393076
C -4.613283 0.069149 0.143069
C -3.946550 1.255871 -0.178177
C -2.553187 1.245844 -0.229106
O 4.694099 0.637766 -0.975913
O 4.808859 -1.103615 0.583844
H 2.232913 -1.522962 1.607876
H -0.207874 -1.385571 1.677508
H -0.158175 1.329956 -1.680190
H 2.308973 1.221241 -1.724442
H -2.154023 -2.042833 0.521713
H -5.708368 0.045632 0.200550
H -4.509732 2.171839 -0.373555
H -2.003227 2.163775 -0.452345
H 5.652150 0.510582 -0.956491
H 4.299395 -1.719915 1.122075