30
Extracted from mol_434.out
B 5.251309 0.243825 0.228067
C 3.690305 -0.006049 0.137712
C 2.988699 -0.613293 1.194711
C 1.619676 -0.842215 1.101507
C 0.871472 -0.462958 -0.025982
C 1.585850 0.155929 -1.069469
C 2.957391 0.368584 -1.004979
F 0.901629 0.542771 -2.152106
O -0.448459 -0.682436 -0.192490
C -1.364011 -0.374640 0.865152
C -2.728872 -0.099860 0.278800
C -3.880385 -0.407433 1.017591
C -5.149396 -0.104692 0.515235
C -5.279925 0.498148 -0.739495
C -4.135334 0.795898 -1.486607
C -2.866264 0.501426 -0.981131
F 0.983990 -1.458551 2.113491
O 5.872352 0.502025 1.413266
O 6.051065 0.213620 -0.874428
H 3.495713 -0.952164 2.102396
H 3.433240 0.863624 -1.855985
H -1.410251 -1.207651 1.584733
H -0.994843 0.514515 1.411121
H -3.785020 -0.891851 1.994458
H -6.038802 -0.350117 1.101919
H -6.271780 0.729405 -1.137146
H -4.230744 1.260036 -2.472084
H -1.970968 0.721063 -1.566324
H 5.259045 0.621503 2.146972
H 5.593317 -0.078458 -1.670687