19
Extracted from mol_439.out
B -2.810793 -0.038770 0.069793
C -1.226353 -0.022768 0.061843
C -0.494275 0.545051 1.125800
C 0.899390 0.559860 1.128385
C 1.606188 0.011368 0.047790
C 0.902078 -0.551270 -1.020877
C -0.495790 -0.571598 -1.007630
C 3.111517 0.029210 0.053106
F 3.593986 -0.671593 1.118400
F 3.574703 1.304905 0.182000
O -3.540653 0.965123 0.632451
O -3.526211 -1.056440 -0.487190
H -1.026473 0.972110 1.982372
H 1.447076 0.996391 1.967219
H 1.446696 -0.975691 -1.869801
H -1.024393 -1.010939 -1.860035
H 3.542935 -0.403078 -0.867380
H -3.003045 1.708247 0.928598
H -2.976584 -1.790116 -0.784675