23
Extracted from mol_260.out
B -3.244881 -0.984165 0.000174
C -1.957474 -0.080013 0.076951
C -0.694143 -0.677180 0.180199
C 0.480192 0.093007 0.240266
C 0.390800 1.493971 0.202503
C -0.868434 2.100282 0.105963
C -2.027118 1.329376 0.042606
O 1.644901 -0.598968 0.333581
C 2.878730 0.097020 0.397480
C 3.993204 -0.928151 0.493280
O -4.488349 -0.501996 -0.314069
O -3.124632 -2.318452 0.251182
H -0.597949 -1.764492 0.215321
H 1.283869 2.117966 0.249223
H -0.933197 3.191853 0.082864
H -2.994777 1.839243 -0.020905
H 3.004899 0.729683 -0.502492
H 2.890250 0.770246 1.276559
H 4.971543 -0.424835 0.545278
H 3.872055 -1.550294 1.393594
H 3.987688 -1.591414 -0.385579
H -4.498308 0.437218 -0.531383
H -3.968867 -2.779903 0.158967