20
Extracted from mol_90.out
B -2.608916 0.374451 -0.361573
C -1.211074 -0.131912 0.166674
C -0.088093 0.711784 0.075731
C 1.153770 0.278685 0.533817
C 1.323961 -0.986047 1.100103
C 0.216149 -1.831105 1.201055
C -1.031861 -1.405879 0.737349
O 2.245291 1.154253 0.485112
C 3.040647 1.131530 -0.606163
F 3.619235 -0.067232 -0.790231
F 3.993899 2.038098 -0.436267
F 2.371391 1.419166 -1.732995
O -2.720345 1.682869 -0.720433
O -3.711160 -0.426080 -0.483273
H -0.183819 1.711933 -0.350582
H 2.309673 -1.289866 1.457068
H 0.330006 -2.822490 1.646955
H -1.882574 -2.088519 0.840513
H -3.604991 1.898201 -1.045368
H -3.561187 -1.351841 -0.260869