32
Extracted from mol_253.out
B 5.337839 -0.380847 0.605598
C 3.824393 -0.034448 0.326278
C 2.780316 -0.840344 0.812393
C 1.432238 -0.546733 0.582500
C 1.089775 0.589329 -0.169876
C 2.114865 1.412818 -0.673592
C 3.446235 1.102807 -0.421827
O -0.177179 0.967763 -0.458255
C -1.274865 0.189530 0.001581
C -2.549702 0.865880 -0.488039
C -3.871960 0.163739 -0.112240
C -4.108175 0.105315 1.404533
C -4.014756 -1.224430 -0.755033
O 5.768347 -1.663816 0.792041
O 6.303865 0.581882 0.678928
H 3.014468 -1.727109 1.412167
H 0.662821 -1.201231 0.992849
H 1.831954 2.288266 -1.262492
H 4.218370 1.759462 -0.837938
H -1.190846 -0.840959 -0.390388
H -1.252242 0.128033 1.105213
H -2.556875 1.896703 -0.093861
H -2.482003 0.955826 -1.585937
H -4.670478 0.798463 -0.538271
H -4.019883 1.102470 1.866934
H -5.116617 -0.278564 1.629648
H -3.388918 -0.562276 1.908967
H -5.022239 -1.635856 -0.579957
H -3.856108 -1.182577 -1.845307
H -3.293834 -1.949129 -0.339750
H 5.077948 -2.314923 0.625073
H 5.943248 1.474955 0.648263