20
Extracted from mol_15.out
B 2.837458 0.703987 0.826763
C 1.338642 0.426861 0.428204
C 0.615270 1.246256 -0.448606
C -0.706727 1.003624 -0.803275
C -1.381669 -0.113423 -0.271359
C -0.686374 -0.956280 0.611689
C 0.641938 -0.680225 0.944354
O -2.659700 -0.269207 -0.670573
C -3.403106 -1.368946 -0.186533
F -1.338324 1.823545 -1.645020
F 1.201221 2.337406 -0.997069
O 3.428796 -0.172291 1.689035
O 3.566492 1.758695 0.361657
H -1.180091 -1.828493 1.040246
H 1.168823 -1.345348 1.632102
H -3.506930 -1.339795 0.912900
H -4.399422 -1.293284 -0.641974
H -2.945292 -2.331030 -0.478224
H 4.344125 0.075049 1.876548
H 3.064873 2.322896 -0.241653