30
Extracted from mol_386.out
B 4.379311 1.436695 0.211662
C 3.348216 0.226447 0.137198
C 3.702852 -1.139236 0.118256
C 2.754774 -2.156381 0.071755
C 1.391745 -1.836178 0.025679
C 0.984353 -0.498422 0.023859
C 1.980909 0.499622 0.080579
F 1.561280 1.770883 0.054438
O -0.290549 -0.057899 -0.030829
C -1.354567 -0.984152 -0.107314
C -2.671604 -0.242989 -0.183294
C -2.728103 1.155935 -0.216263
C -3.964320 1.807615 -0.292378
C -5.150959 1.071768 -0.336547
C -5.098644 -0.326470 -0.303358
C -3.866409 -0.978484 -0.226675
Br 5.555227 -1.658885 0.167982
O 5.463163 1.541847 -0.608187
O 4.162623 2.408359 1.132878
H 3.067728 -3.201459 0.070017
H 0.658084 -2.641692 -0.013627
H -1.232006 -1.630219 -0.999371
H -1.345010 -1.649668 0.778428
H -1.799058 1.726438 -0.180182
H -3.996685 2.900341 -0.316749
H -6.115088 1.583775 -0.395922
H -6.021849 -0.911391 -0.336410
H -3.833849 -2.072756 -0.199917
H 5.612617 0.764049 -1.160841
H 4.845816 3.092507 1.096496