22
Extracted from mol_182.out
B 3.012140 -0.015965 0.131139
C 1.457541 0.211916 0.182662
C 0.577340 -0.883844 0.095188
C -0.815244 -0.744357 0.137478
C -1.370872 0.551342 0.272998
C -0.504536 1.650610 0.360235
C 0.880793 1.485886 0.316370
C -2.865535 0.748614 0.322593
C -1.708845 -1.957291 0.041305
O 3.934947 0.993453 0.223519
O 3.481422 -1.289344 -0.012407
H 1.004042 -1.885537 -0.009587
H -0.927575 2.654494 0.464319
H 1.510355 2.380934 0.388673
H -3.319493 0.202052 1.167350
H -3.128224 1.811472 0.429340
H -3.355665 0.370340 -0.591328
H -2.345111 -2.067424 0.936823
H -1.119123 -2.879438 -0.066097
H -2.393912 -1.893155 -0.821919
H 3.548169 1.870301 0.326712
H 4.447387 -1.315059 -0.030455