20
Extracted from mol_77.out
B -1.848484 -0.857037 -0.089447
C -0.368915 -0.311739 -0.059465
C 0.006783 1.011127 0.304816
C 1.369146 1.359439 0.284873
C 2.358979 0.451378 -0.079941
C 1.997900 -0.858142 -0.441271
C 0.640539 -1.219025 -0.425134
C 3.001237 -1.813563 -0.821685
N 3.813450 -2.584913 -1.129940
C -0.996560 2.062764 0.714268
O -2.015943 -2.165105 -0.458625
O -2.892505 -0.036342 0.242014
H 1.660283 2.375609 0.564774
H 3.409850 0.749188 -0.086806
H 0.360960 -2.236089 -0.705582
H -0.493820 3.009437 0.960900
H -1.583959 1.740737 1.587732
H -1.728345 2.254288 -0.085703
H -2.922932 -2.491404 -0.475264
H -3.767665 -0.440605 0.199488