22
Extracted from mol_67.out
B 3.566115 0.272152 0.099161
C 1.995018 0.097138 0.067027
C 1.109444 0.979774 0.702020
C -0.272897 0.816012 0.683257
C -0.818389 -0.283209 0.005364
C 0.030556 -1.191121 -0.645288
C 1.409646 -0.991412 -0.612132
C -2.293247 -0.527475 -0.054881
O -2.806613 -1.457783 -0.632388
O -2.998002 0.407851 0.608596
C -4.416692 0.251650 0.603806
F 1.599000 2.050919 1.343206
O 4.182602 0.686305 1.233801
O 4.337984 -0.036971 -0.988987
H -0.910276 1.539762 1.191095
H -0.410520 -2.043027 -1.165645
H 2.059006 -1.715515 -1.114926
H -4.809529 0.277316 -0.424357
H -4.818840 1.089697 1.186686
H -4.706176 -0.706818 1.061550
H 5.142195 0.741570 1.124058
H 3.829612 -0.256818 -1.778523