25
Extracted from mol_335.out
B 2.148563 1.739893 -0.021123
C 0.950521 0.716263 -0.041557
C 1.084269 -0.691456 0.113380
C -0.052512 -1.521152 0.114986
C -1.323712 -0.969055 -0.039518
C -1.494211 0.413487 -0.205086
C -0.343302 1.223335 -0.206422
C -2.830394 1.064524 -0.378681
O -2.929659 2.271018 -0.510151
C -4.072850 0.185510 -0.388392
O 2.337519 -1.176223 0.238375
C 2.553496 -2.558292 0.410985
O 3.357762 1.404532 0.519627
O 1.881245 2.983258 -0.535583
H 0.046156 -2.599970 0.233658
H -2.185871 -1.639993 -0.031562
H -0.484268 2.297634 -0.339555
H -4.172282 -0.372477 0.557253
H -4.954016 0.825297 -0.526854
H -4.028411 -0.556339 -1.202657
H 2.190793 -3.143814 -0.453433
H 2.068495 -2.939610 1.327784
H 3.639967 -2.692833 0.501212
H 4.015655 2.110384 0.503560
H 2.597046 3.626076 -0.472333