47
Extracted from mol_152.out
B 6.482479 -1.537883 0.207227
C 5.116747 -0.776707 0.039452
C 5.041358 0.606701 -0.202223
C 3.816248 1.262467 -0.343818
C 2.604202 0.560247 -0.249461
C 2.670290 -0.824717 -0.010349
C 3.896035 -1.475306 0.129992
C 1.275358 1.280831 -0.398916
C 0.413509 1.212971 0.881625
C -0.912003 1.971006 0.719748
C -1.743795 1.492578 -0.490782
C -0.865073 1.551291 -1.758969
C 0.461443 0.790347 -1.616974
C -2.398460 0.107055 -0.299280
C -3.476248 0.048779 0.790966
C -4.133208 -1.330250 0.971033
C -4.945797 -1.863782 -0.220683
C -6.163583 -1.014632 -0.595356
O 6.455546 -2.888887 0.395513
O 7.707843 -0.924525 0.178231
H 5.956412 1.205424 -0.287535
H 3.797536 2.340543 -0.531309
H 1.747529 -1.406803 0.068594
H 3.917435 -2.552334 0.315838
H 1.503943 2.348498 -0.575396
H 0.218022 0.156050 1.134426
H 0.982523 1.626780 1.731204
H -0.689698 3.045431 0.584664
H -1.499935 1.901540 1.649773
H -2.571135 2.213152 -0.629723
H -1.428094 1.166473 -2.627037
H -0.640652 2.610451 -1.982545
H 0.268944 -0.292338 -1.517666
H 1.063233 0.907815 -2.533994
H -2.843457 -0.188428 -1.265928
H -1.630964 -0.658181 -0.083529
H -4.250052 0.809221 0.577839
H -3.036303 0.342151 1.759606
H -4.795329 -1.289173 1.855600
H -3.347356 -2.066896 1.220501
H -4.290674 -1.977095 -1.103007
H -5.283864 -2.886063 0.025497
H -5.877642 -0.006462 -0.937720
H -6.741364 -1.482959 -1.408833
H -6.843375 -0.889481 0.265162
H 7.344679 -3.255429 0.491673
H 7.666751 0.030534 0.054889