16
Extracted from mol_118.out
B -2.130929 0.232800 0.131066
C -0.562717 0.016434 0.040688
C 0.305306 1.112850 -0.132314
C 1.687356 0.922200 -0.210190
C 2.241145 -0.359333 -0.129030
C 1.388309 -1.455558 0.038022
C 0.006996 -1.267993 0.127289
I 2.969685 2.605244 -0.454522
O -2.924040 -0.563261 0.901767
O -2.763968 1.223340 -0.557385
H -0.100725 2.126509 -0.190040
H 3.321070 -0.504859 -0.195003
H 1.812850 -2.461600 0.096220
H -0.640238 -2.142672 0.248949
H -2.426204 -1.182085 1.447724
H -2.183899 1.697987 -1.163242