33
Extracted from mol_119.out
B 5.702262 0.297188 -0.094188
C 4.146077 0.033757 -0.093477
C 3.214161 1.085730 -0.002820
C 1.834318 0.878891 -0.005729
C 1.331600 -0.432972 -0.092041
C 2.242322 -1.504039 -0.178302
C 3.614298 -1.267866 -0.183528
N -0.035980 -0.741112 -0.098124
C -1.114389 0.115821 -0.028221
O -1.054757 1.323187 0.057115
O -2.241046 -0.625006 -0.071567
C -3.576680 -0.015420 -0.030106
C -3.771165 0.730568 1.294289
C -3.771518 0.899048 -1.244301
C -4.504331 -1.229792 -0.110269
O 6.259889 1.364035 0.549455
O 6.578908 -0.528746 -0.738548
H 3.571370 2.119972 0.055156
H 1.140504 1.714704 0.054995
H 1.864642 -2.529683 -0.238617
H 4.287550 -2.130105 -0.241541
H -0.280152 -1.722696 -0.165382
H -4.809922 1.089636 1.366954
H -3.095698 1.592614 1.368785
H -3.583196 0.057083 2.145592
H -3.095543 1.762946 -1.204206
H -4.810087 1.265033 -1.268605
H -3.584440 0.343732 -2.177165
H -4.329322 -1.908464 0.738699
H -4.330905 -1.789725 -1.042121
H -5.556517 -0.907286 -0.087774
H 5.620984 1.859971 1.073509
H 6.136759 -1.201003 -1.268759