22
Extracted from mol_183.out
B 3.119965 0.250052 -0.238610
C 1.554507 0.151086 -0.139241
C 0.879522 -1.068012 0.005183
C -0.516032 -1.159746 0.094189
C -1.288273 0.027962 0.036704
C -0.636189 1.265298 -0.107932
C 0.755324 1.312294 -0.193026
O -2.629003 -0.111021 0.126905
C -3.463868 1.029307 0.079029
C -1.144155 -2.495092 0.246574
O -0.513775 -3.531255 0.302181
O 3.679064 1.486520 -0.381121
O 3.957925 -0.830332 -0.190765
H 1.412842 -2.023581 0.056818
H -1.207321 2.192831 -0.154658
H 1.245345 2.283155 -0.305424
H -3.252976 1.723339 0.911528
H -3.358232 1.571265 -0.877190
H -4.494592 0.661799 0.170480
H -2.257032 -2.497696 0.309266
H 4.643200 1.441976 -0.433066
H 3.513756 -1.680147 -0.089220