16
Extracted from mol_131.out
B 2.149146 -0.066031 -0.051332
C 0.554283 -0.045618 -0.010374
C -0.219734 -1.202159 0.150529
C -1.610929 -1.204762 0.184835
C -2.293722 0.006863 0.065663
C -1.560610 1.188629 -0.083059
C -0.165123 1.160701 -0.119316
Br -2.477709 2.854032 -0.234121
F 0.403875 -2.398980 0.282534
O 2.871423 -1.149478 0.326797
O 2.860880 1.020407 -0.462692
H -2.144556 -2.149530 0.306605
H -3.384501 0.031135 0.091740
H 0.370406 2.108126 -0.222353
H 2.319056 -1.901152 0.574036
H 2.327813 1.747815 -0.799492