28
Extracted from mol_72.out
B 1.778300 2.636069 -0.014609
C 0.906866 1.332068 0.077157
C 1.476554 0.093741 -0.264530
C 0.725806 -1.086855 -0.175801
C -0.614903 -1.041971 0.263410
C -1.200974 0.202027 0.579779
C -0.434678 1.374553 0.498100
O -2.505668 0.153230 0.952497
C -3.161098 1.344783 1.314481
O -1.340039 -2.184196 0.415806
C -1.888899 -2.740384 -0.768462
O 1.194096 -2.324852 -0.481998
C 2.536771 -2.469053 -0.888058
O 1.423680 3.826464 0.566993
O 2.957951 2.592572 -0.699504
H 2.512881 0.070242 -0.600275
H -0.901653 2.332592 0.736502
H -3.194885 2.070363 0.480357
H -2.684476 1.831018 2.186134
H -4.189605 1.067561 1.584245
H -2.588262 -2.036778 -1.255535
H -2.443170 -3.642112 -0.470239
H -1.099828 -3.024909 -1.485553
H 2.748737 -1.918114 -1.822504
H 3.240403 -2.125086 -0.108560
H 2.696114 -3.542085 -1.062913
H 0.627926 3.769346 1.108190
H 3.422054 3.439767 -0.665109