24
Extracted from mol_22.out
B -3.358216 -0.054897 0.675135
C -2.116847 0.028357 -0.289557
C -0.822466 -0.101393 0.236397
C 0.321473 -0.037701 -0.577874
C 0.169469 0.163663 -1.962736
C -1.115428 0.296655 -2.494856
C -2.244655 0.230875 -1.676853
N 1.573967 -0.175378 0.050103
C 2.832235 -0.183320 -0.511259
O 3.053613 -0.115542 -1.709503
C 3.969387 -0.278412 0.462559
C 3.973912 0.151452 1.729762
O -3.130490 -0.190870 2.013702
O -4.658337 -0.001677 0.251347
H -0.707977 -0.255513 1.314108
H 1.052413 0.208020 -2.596414
H -1.228325 0.454013 -3.571123
H -3.232857 0.343532 -2.136774
H 1.531755 -0.343599 1.048352
H 4.880526 -0.674430 0.003338
H 4.874626 0.085402 2.346713
H 3.097689 0.610406 2.200227
H -3.955145 -0.237933 2.515667
H -4.760324 0.078292 -0.703926