20
Extracted from mol_342.out
B 2.839475 0.719417 0.207466
C 1.388445 0.070147 -0.020900
C 1.201137 -1.218218 -0.564479
C -0.062399 -1.769308 -0.763396
C -1.202147 -1.043753 -0.410211
C -1.081650 0.239557 0.139126
C 0.217603 0.769546 0.316066
Cl 0.321115 2.383227 1.004626
O -2.121500 1.012555 0.512384
C -3.439776 0.529264 0.357362
Br 2.710155 -2.293007 -1.083374
O 3.161542 1.945748 -0.277325
O 3.814600 0.069755 0.892612
H -0.165073 -2.766722 -1.193789
H -2.184397 -1.489719 -0.567767
H -3.611404 -0.387986 0.948804
H -3.678708 0.324078 -0.701681
H -4.104155 1.321914 0.726128
H 2.406634 2.424533 -0.639279
H 3.590505 -0.841030 1.117626