21
Extracted from mol_23.out
B -2.686074 -0.169276 -0.091345
C -1.092470 -0.252028 -0.069677
C -0.268741 0.856821 -0.303730
C 1.123931 0.815843 -0.266757
C 1.744864 -0.405773 0.014536
C 0.957089 -1.543869 0.254913
C -0.435170 -1.463000 0.214779
C 3.231708 -0.544766 0.070785
O 3.811037 -1.578399 0.306020
O 3.873942 0.614461 -0.170941
N -0.920473 2.146770 -0.613491
O -0.224008 3.135301 -0.743819
O -2.141917 2.134482 -0.729197
O -3.304688 0.030869 1.100545
O -3.432310 -0.514785 -1.182791
H 1.700988 1.719989 -0.453774
H 1.462150 -2.486578 0.476335
H -1.026412 -2.360550 0.415767
H 4.826194 0.427304 -0.110521
H -4.267841 0.041882 1.011507
H -2.931796 -0.604697 -2.001245