16
Extracted from mol_208.out
B -2.045864 0.158309 0.164125
C -0.479743 0.054620 0.035814
C 0.206942 -1.173671 0.058273
C 1.596482 -1.249033 -0.055553
C 2.328309 -0.065976 -0.196183
C 1.684286 1.175543 -0.223655
C 0.294370 1.223268 -0.108262
Cl 4.069701 -0.141253 -0.339522
O -2.874398 -0.919650 0.323790
O -2.613818 1.396388 0.114179
H -0.343240 -2.115590 0.166901
H 2.114009 -2.209911 -0.036456
H 2.272514 2.088542 -0.334499
H -0.210128 2.192515 -0.129774
H -2.423909 -1.770850 0.357811
H -3.575513 1.356747 0.203012