26
Extracted from mol_394.out
B 3.611128 -0.550979 -0.137882
C 2.036301 -0.638667 -0.124056
C 1.283329 0.529681 0.074748
C -0.122975 0.520922 0.094347
C -0.808306 -0.712234 -0.092023
C -0.046206 -1.876245 -0.285986
C 1.344427 -1.849134 -0.303727
C -2.293893 -0.916057 -0.103246
O -2.806645 -2.005966 -0.248999
O -3.018092 0.201262 0.057029
C -4.433462 0.032822 0.049004
O -0.850162 1.640202 0.286420
C -0.203992 2.880998 0.471634
O 4.193140 0.653347 0.126642
O 4.428813 -1.614449 -0.403216
H 1.822454 1.465479 0.217781
H -0.594337 -2.810112 -0.423166
H 1.883440 -2.790418 -0.455589
H -4.755494 -0.642530 0.856966
H -4.775281 -0.390373 -0.908529
H -4.859155 1.033683 0.196555
H -1.001914 3.624989 0.599993
H 0.410869 3.161057 -0.402389
H 0.436326 2.882970 1.371875
H 5.157783 0.603845 0.088367
H 3.961905 -2.434097 -0.602556