19
Extracted from mol_123.out
B 1.897950 -0.524725 -0.215390
C 0.328440 -0.385150 -0.105676
C -0.345481 0.840337 0.143087
C -1.747771 0.836648 0.219305
C -2.499649 -0.328505 0.044925
C -1.826683 -1.518418 -0.205315
C -0.437736 -1.554773 -0.275384
F -2.524975 -2.653010 -0.381600
C 0.399444 2.142562 0.333373
O 2.651979 0.498926 -0.704792
O 2.552435 -1.674243 0.144191
H -2.271928 1.775463 0.420194
H -3.590473 -0.322939 0.100201
H 0.033608 -2.519029 -0.488852
H -0.288510 2.950177 0.624874
H 1.176845 2.058941 1.109371
H 0.919369 2.445259 -0.588831
H 3.590697 0.266003 -0.730972
H 1.982441 -2.333526 0.557290