26
Extracted from mol_217.out
B -4.286368 0.716648 -0.361546
C -2.730047 0.394450 -0.362047
C -1.942961 0.464551 -1.521643
C -0.581188 0.185299 -1.541169
C 0.078709 -0.199915 -0.356648
C -0.677260 -0.290565 0.823353
C -2.043347 0.001693 0.800460
O 1.394322 -0.452656 -0.474415
C 2.157943 -0.806478 0.675308
C 3.607665 -0.983238 0.248370
C 4.241455 0.286465 -0.322201
F 0.106096 0.278513 -2.679865
F -2.500740 0.819773 -2.700868
O -4.989621 0.820983 0.803543
O -4.999147 0.897055 -1.503035
H -0.205018 -0.593222 1.757607
H -2.594390 -0.096364 1.741231
H 2.068308 -0.009841 1.438822
H 1.761581 -1.741665 1.112622
H 4.170585 -1.332807 1.131615
H 3.654302 -1.798284 -0.494380
H 4.244648 1.101932 0.421122
H 5.284725 0.106303 -0.625616
H 3.685231 0.637489 -1.204645
H -4.450787 0.756909 1.598473
H -4.454695 0.836971 -2.297327