38
Extracted from mol_419.out
B 4.024148 1.020264 0.700828
C 2.631610 0.328302 0.471441
C 1.457698 1.058353 0.237192
C 0.195135 0.472370 0.030186
C 0.106277 -0.941420 0.038287
C 1.280645 -1.681217 0.284306
C 2.513052 -1.073273 0.494174
C -1.215351 -1.703248 -0.177268
C -2.282739 -0.762690 -0.778463
C -2.331845 0.594800 -0.090265
C -1.015517 1.390848 -0.232877
C -0.904842 1.979807 -1.660087
C -1.066838 2.558727 0.777117
C -1.704170 -2.260593 1.181786
C -1.028529 -2.885617 -1.153652
O 4.185399 2.371795 0.866693
O 5.142116 0.239587 0.742036
H 1.517334 2.151322 0.200098
H 1.226297 -2.771842 0.309119
H 3.400216 -1.685484 0.674988
H -3.268061 -1.256484 -0.722406
H -2.074406 -0.625509 -1.853657
H -2.552582 0.456600 0.982375
H -3.161503 1.199886 -0.494405
H -1.747266 2.662337 -1.864423
H 0.029335 2.550687 -1.781317
H -0.907737 1.193358 -2.430179
H -0.229069 3.262659 0.656142
H -1.053180 2.190099 1.815386
H -1.995760 3.135489 0.634065
H -0.951235 -2.927932 1.629500
H -1.902725 -1.457664 1.908391
H -2.634053 -2.839127 1.048801
H -0.590865 -2.550805 -2.107734
H -2.006008 -3.347127 -1.371965
H -0.381467 -3.675602 -0.743510
H 3.357491 2.865324 0.878330
H 5.938992 0.763021 0.900971