19
Extracted from mol_241.out
B -2.794761 -0.192677 0.046778
C -1.232164 -0.120241 -0.176913
C -0.360524 0.146790 0.913240
C 0.997640 0.205572 0.666036
C 1.523033 0.019509 -0.616841
C 0.707366 -0.236926 -1.705199
C -0.677387 -0.306509 -1.456074
O 2.881908 0.130667 -0.572277
C 3.227515 0.395209 0.787004
O 2.020840 0.434108 1.544049
O -3.422949 0.538490 1.013560
O -3.601962 -0.988780 -0.712785
H -0.736819 0.283235 1.930447
H 1.124191 -0.374196 -2.704503
H -1.341423 -0.494371 -2.305743
H 3.744259 1.370226 0.855993
H 3.882456 -0.410225 1.167275
H -2.835496 1.165231 1.450262
H -3.105721 -1.565115 -1.304794