16
Extracted from mol_50.out
B -2.022490 -0.413536 0.394972
C -0.467605 -0.142575 0.362951
C 0.496932 -1.160379 0.385552
C 1.869886 -0.916499 0.372301
C 2.309295 0.408681 0.343348
C 1.396023 1.467884 0.320640
C 0.031354 1.175041 0.326135
Cl 4.023269 0.741585 0.332584
F 0.104918 -2.440170 0.398248
O -2.522660 -1.439525 1.128334
O -2.902535 0.399939 -0.269894
H 2.570947 -1.751620 0.383331
H 1.754207 2.498158 0.303131
H -0.675998 2.010878 0.321753
H -3.486580 -1.490845 1.064947
H -2.478963 1.052981 -0.839022