16
Extracted from mol_377.out
B -1.969472 -0.256446 -0.406140
C -0.424609 -0.026070 -0.094705
C 0.098777 1.080770 0.594847
C 1.467067 1.252630 0.819227
C 2.361314 0.286519 0.356120
C 1.886010 -0.838012 -0.321571
C 0.508428 -0.975163 -0.534882
F 0.066689 -2.065438 -1.166259
Cl 2.976356 -2.063708 -0.896882
Br -1.085612 2.437110 1.259768
O -2.926122 -0.292751 0.563278
O -2.335475 -0.428400 -1.699376
H 1.834019 2.131866 1.350437
H 3.434671 0.396423 0.521422
H -2.602628 -0.077716 1.446787
H -3.289412 -0.561615 -1.792072