18
Extracted from mol_313.out
B 1.890611 -0.238929 0.390825
C 0.327273 -0.227963 0.165291
C -0.439959 0.797998 -0.452092
C -1.830479 0.667123 -0.600277
C -2.466754 -0.476140 -0.140034
C -1.753380 -1.504408 0.475324
C -0.373621 -1.366237 0.620584
F -3.792202 -0.598274 -0.285484
C 0.146515 2.077703 -0.970501
O -0.521743 2.942666 -1.495999
O 2.691472 0.738336 -0.138263
O 2.389581 -1.280708 1.126880
H -2.394660 1.471350 -1.076211
H -2.283916 -2.391041 0.829708
H 0.187618 -2.168743 1.103303
H 1.242278 2.198048 -0.845345
H 3.635454 0.651410 0.043155
H 3.345913 -1.292190 1.249135