28
Extracted from mol_221.out
B 3.931423 0.620670 -0.367555
C 2.454440 0.155785 -0.092442
C 1.723316 0.705405 0.978902
C 0.413089 0.307048 1.247584
C -0.232399 -0.658655 0.454852
C 0.493265 -1.216803 -0.611654
C 1.803928 -0.815357 -0.876012
C -1.658424 -1.082636 0.737966
C -2.774907 -0.269217 0.023429
C -2.715713 -0.396260 -1.504132
C -2.808008 1.201619 0.457336
O 4.475714 1.572464 0.444192
O 4.712144 0.126189 -1.379634
H 2.201136 1.456175 1.613650
H -0.120188 0.745731 2.096237
H 0.026112 -1.983495 -1.236543
H 2.324233 -1.286408 -1.718867
H -1.838553 -1.025917 1.825147
H -1.777990 -2.143235 0.457529
H -3.723912 -0.731102 0.354855
H -3.575607 0.110717 -1.972087
H -2.736227 -1.451337 -1.824867
H -1.799188 0.060726 -1.912388
H -2.893558 1.300127 1.552450
H -3.670064 1.721737 0.008072
H -1.897084 1.737066 0.142806
H 5.383954 1.784025 0.190303
H 4.279068 -0.545060 -1.918977