22
Extracted from mol_14.out
B -0.730573 1.854497 0.057552
C -0.866037 0.271435 -0.018384
C -2.091769 -0.299019 -0.409416
C -2.257058 -1.685533 -0.502754
C -1.199770 -2.545302 -0.190809
C 0.027462 -2.013213 0.214144
C 0.173384 -0.625968 0.282563
S 1.743242 0.032091 0.887577
O 1.423954 1.285832 1.599954
O 2.470267 -1.050954 1.565944
C 2.676147 0.475469 -0.591387
O -1.471823 2.612783 0.914022
O 0.017820 2.482027 -0.895466
H -2.936055 0.354977 -0.648788
H -3.221061 -2.097064 -0.814153
H -1.332594 -3.628657 -0.249668
H 0.863983 -2.655439 0.497831
H 2.861196 -0.432781 -1.179788
H 2.105048 1.227935 -1.150560
H 3.621706 0.892275 -0.215375
H -1.906332 2.103968 1.608438
H 0.028863 3.440640 -0.761476