23
Extracted from mol_449.out
B 2.943453 0.416922 -0.003279
C 1.486791 -0.172300 -0.041846
C 0.376668 0.680020 0.071706
C -0.941675 0.192701 0.039063
C -1.156880 -1.204995 -0.111759
C -0.036920 -2.047630 -0.224357
C 1.262204 -1.552361 -0.191495
C -2.484592 -1.891659 -0.165398
O -2.605141 -3.091235 -0.303067
O -3.560686 -1.092653 -0.049230
O -2.018124 1.000444 0.144091
C -1.846870 2.392224 0.291077
O 3.992312 -0.452315 -0.123861
O 3.084901 1.770831 0.148055
H 0.556939 1.748363 0.187424
H -0.231008 -3.115686 -0.339720
H 2.110957 -2.233677 -0.282081
H -4.326365 -1.690548 -0.103216
H -1.295031 2.645919 1.214173
H -2.856710 2.820626 0.350358
H -1.318459 2.836935 -0.571436
H 4.873361 -0.060980 -0.097153
H 3.990874 2.101054 0.165814