32
Extracted from mol_105.out
B -4.377842 -0.701737 0.410215
C -2.863799 -0.345923 0.132087
C -2.238936 0.739241 0.772307
C -0.900285 1.081064 0.540714
C -0.160430 0.285683 -0.357111
C -0.746190 -0.800799 -1.037200
C -2.091690 -1.091012 -0.776816
C 0.058456 -1.602473 -2.030125
O 1.144327 0.624009 -0.634646
C 2.152290 0.032713 0.183968
C 3.511939 0.519481 -0.292497
C 4.667873 -0.057480 0.525502
C -0.263769 2.278991 1.201126
O -5.175382 -1.278211 -0.535934
O -4.971852 -0.452203 1.613918
H -2.816534 1.367749 1.460093
H -2.542693 -1.941469 -1.301334
H -0.594026 -2.242589 -2.642333
H 0.789541 -2.260910 -1.529404
H 0.632644 -0.941941 -2.698147
H 1.992014 0.307086 1.244601
H 2.092082 -1.071275 0.124780
H 3.623271 0.252953 -1.357614
H 3.521567 1.622172 -0.247886
H 4.589542 0.219155 1.590620
H 4.694223 -1.159031 0.470722
H 5.637157 0.314444 0.158365
H -1.023195 2.919183 1.673990
H 0.453630 1.982606 1.986146
H 0.298677 2.880614 0.470299
H -4.745196 -1.341573 -1.396009
H -4.347408 -0.138520 2.277607