26
Extracted from mol_196.out
B 4.233317 0.006584 0.028817
C 2.660037 0.011949 0.015484
C 1.908912 0.713737 -0.945754
C 0.514194 0.706174 -0.941071
C -0.199824 -0.012976 0.036512
C 0.543860 -0.718321 1.003087
C 1.937948 -0.703674 0.990769
C -1.687203 -0.026962 0.046977
C -2.426901 1.120291 -0.300343
C -3.823393 1.107256 -0.290153
C -4.514984 -0.054752 0.066165
C -3.795799 -1.202785 0.413113
C -2.399318 -1.188453 0.404483
O 5.007785 0.648796 -0.901064
O 4.870671 -0.677305 1.021663
H 2.413873 1.284392 -1.734361
H -0.030554 1.244274 -1.720702
H 0.019165 -1.265363 1.790461
H 2.489267 -1.252730 1.758416
H -1.900420 2.042810 -0.557168
H -4.374797 2.013744 -0.554643
H -5.608131 -0.065484 0.073695
H -4.325571 -2.119756 0.685506
H -1.851115 -2.099912 0.654980
H 4.507050 1.108396 -1.584417
H 5.831933 -0.619927 0.938984