20
Extracted from mol_59.out
B 2.616650 1.117915 -0.162004
C 1.326383 0.201388 -0.069769
C 0.064197 0.752670 0.206662
C -1.092627 -0.035775 0.286348
C -0.983394 -1.423252 0.103894
C 0.259859 -1.998982 -0.171475
C 1.397764 -1.193561 -0.258576
C -2.390931 0.669555 0.596642
O -2.410740 1.800720 1.052099
N -3.538860 -0.033831 0.347175
O 2.550787 2.420180 -0.554398
O 3.860103 0.647772 0.143244
H -0.058836 1.824593 0.388213
H -1.859579 -2.069434 0.203134
H 0.339853 -3.080161 -0.312655
H 2.360042 -1.663896 -0.488395
H -4.412864 0.462484 0.479418
H -3.545600 -0.848964 -0.250704
H 1.667528 2.692880 -0.827486
H 3.850261 -0.242302 0.512069