27
Extracted from mol_319.out
B -2.052184 -1.500896 0.720955
C -1.672564 -0.086175 0.135768
C -2.696452 0.882576 0.071383
C -2.485778 2.153676 -0.465999
C -1.218123 2.483133 -0.950775
C -0.184536 1.545068 -0.893049
C -0.389606 0.264415 -0.357090
C 0.766873 -0.729152 -0.353419
N 2.085633 -0.109124 -0.327346
C 2.414422 0.454181 0.969544
C 3.128073 -0.989664 -0.817854
O -1.523364 -2.640116 0.189108
O -2.954594 -1.645183 1.744528
H -3.698535 0.627708 0.434590
H -3.303703 2.878140 -0.508151
H -1.031252 3.473364 -1.376442
H 0.813067 1.793079 -1.262268
H 0.693631 -1.336033 -1.272815
H 0.637981 -1.453149 0.478619
H 2.506020 -0.320045 1.767693
H 1.639070 1.169064 1.284618
H 3.372230 0.996875 0.916381
H 2.892343 -1.329525 -1.839068
H 3.276010 -1.896640 -0.185101
H 4.089563 -0.451835 -0.854135
H -1.863515 -3.430429 0.631698
H -3.240711 -0.803312 2.118626