28
Extracted from mol_455.out
B -3.168764 -0.448130 0.247817
C -1.600886 -0.589130 0.180575
C -0.737764 0.528315 0.231920
C 0.658281 0.390217 0.213204
C 1.226725 -0.903369 0.132654
C 0.387535 -2.025575 0.074908
C -0.998467 -1.854879 0.104524
O 2.582005 -0.947418 0.126176
C 3.230107 -2.197476 0.030418
O 1.458763 1.500067 0.240957
C 2.073247 1.790373 1.489656
O -1.287837 1.792747 0.345208
C -1.098204 2.677919 -0.761139
O -3.788292 0.741819 0.485988
O -3.924784 -1.574366 0.074286
H 0.806875 -3.029931 0.011239
H -1.643998 -2.735713 0.064778
H 2.986944 -2.853859 0.885549
H 2.969625 -2.722616 -0.906048
H 4.308979 -1.990529 0.034479
H 2.752225 0.979090 1.800825
H 2.657083 2.711729 1.350563
H 1.317125 1.958392 2.277448
H -0.029728 2.876627 -0.927491
H -1.612093 3.615266 -0.504171
H -1.547503 2.257879 -1.678451
H -3.109620 1.431065 0.605350
H -4.867582 -1.378515 0.156383