18
Extracted from mol_239.out
B -2.063696 0.280723 0.082473
C -0.535667 -0.150857 -0.005261
C 0.563702 0.740858 0.067700
C 1.887507 0.275356 0.000788
C 2.120021 -1.085715 -0.134327
C 1.066492 -1.998716 -0.215905
C -0.244331 -1.522204 -0.158907
F 3.377226 -1.538785 -0.195164
C 0.360711 2.215515 0.176740
O 1.259886 3.022538 0.237951
O -2.964244 -0.139296 -0.848959
O -2.571039 1.038412 1.095305
H 2.714628 0.986600 0.047562
H 1.287393 -3.063079 -0.323466
H -1.063804 -2.245010 -0.221608
H -0.706468 2.549278 0.195673
H -2.557963 -0.610834 -1.585193
H -1.930351 1.245217 1.784595