23
Extracted from mol_308.out
B -1.282170 1.712625 0.975716
C -1.219768 0.223138 0.459908
C -2.386963 -0.552543 0.610740
C -2.454815 -1.877783 0.176648
C -1.333009 -2.462985 -0.413608
C -0.157069 -1.723004 -0.565405
C -0.089318 -0.389840 -0.140440
C 1.211964 0.370861 -0.326385
O 2.261228 -0.493753 -0.664603
C 3.491322 0.152619 -0.853681
O -2.173623 2.009969 1.964634
O -0.520018 2.749752 0.496869
H -3.257786 -0.096010 1.087880
H -3.376295 -2.452408 0.304845
H -1.367059 -3.502176 -0.753327
H 0.728938 -2.177558 -1.009646
H 1.457068 0.937356 0.596251
H 1.089802 1.131143 -1.137544
H 3.828058 0.680339 0.062093
H 3.447903 0.895401 -1.677260
H 4.237089 -0.613329 -1.111708
H -2.163179 2.952375 2.180918
H 0.027698 2.525809 -0.262894