38
Extracted from mol_403.out
B 5.323523 -1.612386 -0.265368
C 4.289472 -0.406286 -0.486752
C 4.682011 0.867139 -0.938871
C 3.805735 1.920955 -1.137277
C 2.441498 1.734207 -0.879494
C 1.972150 0.494979 -0.426140
C 2.919292 -0.535101 -0.245875
F 2.431015 -1.716973 0.192398
O 0.688058 0.185676 -0.141298
C -0.317819 1.184841 -0.310913
C -1.654416 0.596829 0.064289
C -2.102137 0.686730 1.388096
C -3.331985 0.103692 1.742115
C -4.096444 -0.558013 0.774302
C -3.642152 -0.647266 -0.546685
C -2.413621 -0.066384 -0.907904
O -4.454652 -1.308579 -1.408483
C -4.063219 -1.459657 -2.754765
O -3.857799 0.135212 2.992224
C -3.144442 0.769596 4.030015
F 5.996817 1.092328 -1.201139
O 4.917867 -2.830939 0.172548
O 6.649957 -1.459970 -0.508580
H 4.188908 2.879737 -1.490754
H 1.753037 2.564499 -1.035857
H -0.325814 1.526091 -1.362309
H -0.085024 2.056753 0.327441
H -1.488694 1.203211 2.126379
H -5.051763 -1.005901 1.050789
H -2.038729 -0.126688 -1.929621
H -4.862095 -2.028249 -3.250153
H -3.951923 -0.484863 -3.264200
H -3.115067 -2.019741 -2.848250
H -2.160521 0.296984 4.203449
H -2.991078 1.845481 3.827656
H -3.753787 0.663565 4.937980
H 3.966975 -2.880046 0.327960
H 6.876862 -0.574192 -0.816954