23
Extracted from mol_143.out
B -1.225552 2.039063 0.086946
C -1.316336 0.463004 -0.006965
C -0.177133 -0.377067 -0.072206
C -0.309298 -1.770589 -0.153036
C -1.582498 -2.350710 -0.171358
C -2.704135 -1.532055 -0.108532
C -2.580034 -0.148257 -0.027129
F -3.927660 -2.089132 -0.126767
O 1.046676 0.247825 -0.051838
C 2.247994 -0.512578 -0.109575
C 3.422106 0.447202 -0.070812
O -2.399693 2.734181 0.146840
O -0.046703 2.718137 0.110321
H 0.564434 -2.419860 -0.202617
H -1.707447 -3.433962 -0.234168
H -3.480263 0.467981 0.021572
H 2.263660 -1.114140 -1.037413
H 2.285595 -1.213944 0.744609
H 3.390784 1.140507 -0.926036
H 4.369241 -0.112634 -0.116168
H 3.415700 1.038844 0.858160
H -2.244185 3.686336 0.202839
H 0.694746 2.091845 0.061426