19
Extracted from mol_343.out
B -2.490075 -0.475784 -0.456865
C -1.041082 0.094631 -0.166230
C 0.073603 -0.760189 -0.083221
C 1.368852 -0.284404 0.179573
C 1.548973 1.096799 0.346933
C 0.450592 1.949186 0.261089
C -0.834100 1.474583 0.015426
F 0.642538 3.268485 0.416810
C 2.535685 -1.233610 0.309167
O -2.690043 -1.572745 -1.241081
O -3.610835 0.099998 0.062878
H -0.066584 -1.839365 -0.209803
H 2.535547 1.524294 0.542338
H -1.652500 2.196773 -0.054221
H 2.632259 -1.599312 1.346777
H 2.410222 -2.116869 -0.336007
H 3.486654 -0.746768 0.044339
H -1.882056 -1.885984 -1.663022
H -3.417650 0.810280 0.685120