20
Extracted from mol_298.out
B -1.796731 -1.230892 -0.496687
C -0.827505 0.004135 -0.395260
C -1.363766 1.275135 -0.675575
C -0.600357 2.432922 -0.618613
C 0.747631 2.341674 -0.272876
C 1.326744 1.109131 0.013987
C 0.547345 -0.060495 -0.044596
O 1.064489 -1.280894 0.224715
C 2.420358 -1.410450 0.580251
F 1.491981 3.450182 -0.218373
F -1.137057 3.631558 -0.890047
O -3.088737 -0.943690 -0.868392
O -1.370323 -2.500093 -0.229597
H -2.416785 1.366064 -0.949457
H 2.383322 1.098306 0.277467
H 2.660111 -0.858050 1.507571
H 3.094244 -1.062261 -0.224295
H 2.595973 -2.481503 0.750207
H -3.682941 -1.700249 -0.928445
H -2.047998 -3.180532 -0.323774