41
Extracted from mol_222.out
B -6.231707 -1.263481 0.472278
C -4.875953 -0.599843 0.046088
C -4.525605 0.723232 0.390837
C -3.319317 1.294974 0.003434
C -2.400371 0.548804 -0.758195
C -2.719513 -0.771652 -1.118140
C -3.939161 -1.322076 -0.714754
O -1.249800 1.180350 -1.093982
C -0.258627 0.501227 -1.853506
C 0.915809 1.446277 -2.071255
C 1.581365 1.968102 -0.787375
C 2.190980 0.910300 0.146995
C 3.352874 0.107434 -0.454265
C 3.972280 -0.936710 0.487536
C 4.723728 -0.365140 1.696416
C 5.372172 -1.442751 2.568042
O -6.460486 -2.563658 0.122734
O -7.213486 -0.617025 1.179349
H -5.210665 1.339127 0.985954
H -3.057025 2.319750 0.275663
H -2.028602 -1.374078 -1.708803
H -4.174413 -2.350651 -1.000806
H -0.679830 0.186649 -2.826900
H 0.057758 -0.415154 -1.320906
H 1.648461 0.921918 -2.709053
H 0.558150 2.307385 -2.661664
H 2.369141 2.686708 -1.077297
H 0.831770 2.547743 -0.223852
H 2.535924 1.427793 1.058447
H 1.404899 0.212120 0.489728
H 3.007359 -0.412508 -1.365228
H 4.141268 0.807398 -0.791315
H 4.671253 -1.566255 -0.093158
H 3.179491 -1.622134 0.843367
H 4.037279 0.237092 2.317323
H 5.499942 0.336891 1.338669
H 4.618077 -2.141616 2.968491
H 6.100314 -2.040386 1.993263
H 5.906393 -1.003704 3.426272
H -7.324295 -2.868712 0.430482
H -7.007832 0.300848 1.389090