22
Extracted from mol_6.out
B -3.195943 0.679392 -0.416201
C -1.703996 0.191524 -0.296142
C -1.191819 -0.229067 0.947233
C 0.127277 -0.663002 1.081992
C 0.985530 -0.701098 -0.028994
C 0.490807 -0.284668 -1.273071
C -0.830036 0.150481 -1.398162
C 2.427376 -1.150007 0.130930
C 3.289503 -0.042971 0.715413
O 3.638306 0.035689 1.866179
O 3.609351 0.883694 -0.211160
O -4.019885 0.515226 0.657261
O -3.716982 1.267145 -1.538412
H -1.847253 -0.213586 1.821766
H 0.501268 -0.977450 2.060860
H 1.144885 -0.303387 -2.149361
H -1.178911 0.453842 -2.392381
H 2.494384 -2.004033 0.819125
H 2.842528 -1.443506 -0.844859
H 4.118326 1.574799 0.247509
H -4.906636 0.860583 0.487585
H -3.078083 1.400397 -2.247740