18
Extracted from mol_398.out
B 2.253568 -0.703426 -0.008868
C 0.821491 -0.036615 0.022301
C -0.326225 -0.820714 -0.178215
C -1.608885 -0.251153 -0.145580
C -1.765481 1.124558 0.081917
C -0.628279 1.902185 0.273857
C 0.647387 1.343253 0.247947
F -0.761025 3.219402 0.487710
C -2.814612 -1.099000 -0.353714
O -2.791070 -2.290670 -0.550890
O 3.390590 -0.077959 0.422200
O 2.353825 -1.971845 -0.486553
H -0.237714 -1.893249 -0.362969
H -2.753784 1.591572 0.109192
H 1.495388 2.019213 0.396139
H -3.786514 -0.539020 -0.313760
H 3.252606 0.793546 0.809964
H 3.258735 -2.310079 -0.450681