25
Extracted from mol_334.out
B 4.070753 -0.352994 0.181813
C 2.493610 -0.216087 0.170873
C 1.840840 0.835025 0.843536
C 0.451277 0.958528 0.840297
C -0.353837 0.031460 0.152030
C 0.288440 -1.021344 -0.526639
C 1.678331 -1.139515 -0.511664
C -1.834523 0.159421 0.141895
C -2.469443 1.413910 0.120076
C -3.865132 1.477803 0.110014
N -4.657426 0.402657 0.121196
C -4.060969 -0.792194 0.142707
C -2.674929 -0.967949 0.153076
O 4.691685 -1.565863 0.133494
O 4.890754 0.734668 0.240911
H 2.429177 1.567434 1.406820
H -0.018088 1.770174 1.401675
H -0.306822 -1.740595 -1.094532
H 2.138548 -1.962999 -1.068369
H -1.884883 2.336083 0.085705
H -4.364827 2.454165 0.086186
H -4.720652 -1.668650 0.157911
H -2.257346 -1.976490 0.194432
H 4.079209 -2.307595 0.192516
H 4.416252 1.570949 0.175650