20
Extracted from mol_207.out
B 2.871418 -0.111986 -0.092642
C 1.323856 0.148217 -0.279306
C 0.358851 -0.459320 0.520660
C -1.026374 -0.245706 0.376388
C -1.447327 0.630559 -0.632004
C -0.502406 1.259871 -1.456005
C 0.858129 1.024707 -1.285007
O -1.833153 -0.912232 1.234982
C -3.229118 -0.741264 1.130170
F 0.740598 -1.311129 1.507267
O 3.393969 -0.943024 0.852843
O 3.722402 0.539296 -0.936070
H -2.509902 0.826902 -0.779698
H -0.848505 1.940872 -2.237839
H 1.590733 1.516561 -1.928024
H -3.528848 0.308663 1.303308
H -3.679928 -1.372705 1.907726
H -3.609770 -1.061505 0.142988
H 2.710672 -1.356182 1.398192
H 4.644705 0.319404 -0.747926