17
Extracted from mol_251.out
B 2.207801 -0.355799 -0.031618
C 0.634560 -0.261525 0.042794
C -0.063892 0.917917 -0.249037
C -1.468580 0.989307 -0.179329
C -2.175114 -0.166837 0.194979
C -1.513435 -1.353910 0.494618
C -0.121266 -1.392169 0.419409
F -3.504176 -0.118555 0.263252
C -2.167534 2.204272 -0.479509
N -2.711236 3.199887 -0.726629
O 3.013254 0.628193 -0.531382
O 2.792619 -1.495081 0.429747
H 0.465825 1.831359 -0.534938
H -2.102168 -2.227220 0.782881
H 0.402902 -2.320709 0.657491
H 2.555617 1.396781 -0.889821
H 3.754823 -1.475913 0.337092