17
Extracted from mol_81.out
B 1.969630 -0.259792 -0.089278
C 0.380916 -0.190689 -0.103922
C -0.325063 -1.217170 -0.756741
C -1.720969 -1.233412 -0.815929
C -2.461851 -0.210139 -0.216159
C -1.801359 0.826462 0.441058
C -0.394830 0.835973 0.496650
C 0.248276 1.922965 1.184636
N 0.798503 2.785973 1.737038
O 2.524022 -1.330289 -0.728103
O 2.804225 0.639685 0.494193
H 0.247648 -2.019170 -1.227120
H -2.234839 -2.048453 -1.332691
H -3.553824 -0.218257 -0.259581
H -2.364863 1.633269 0.914742
H 3.489476 -1.310315 -0.681309
H 2.394903 1.393358 0.942517