32
Extracted from mol_103.out
B 4.662414 0.676387 0.407854
C 3.167926 0.249282 0.154626
C 2.281328 -0.050519 1.205532
C 0.955992 -0.419092 0.965122
C 0.477353 -0.513325 -0.351115
C 1.357001 -0.247532 -1.412245
C 2.671144 0.145788 -1.159970
C -0.906243 -1.033490 -0.670793
O -1.019783 -2.038719 -1.360194
N -1.999472 -0.374550 -0.158272
C -1.971105 0.973713 0.411169
C -2.212837 2.083214 -0.616913
C -3.315963 -0.966439 -0.426072
C -3.724463 -2.002133 0.622018
O 5.292575 0.554665 1.617759
O 5.374053 1.192481 -0.633339
H 2.618229 0.010887 2.247007
H 0.294217 -0.652167 1.803955
H 0.999825 -0.358898 -2.439035
H 3.338449 0.369316 -1.996239
H -1.005041 1.139704 0.903022
H -2.734191 1.020437 1.207087
H -1.416601 2.088889 -1.378278
H -3.177696 1.959516 -1.134669
H -2.220415 3.068767 -0.122976
H -3.284859 -1.438309 -1.418991
H -4.054282 -0.150105 -0.466339
H -3.754001 -1.564858 1.633905
H -4.725926 -2.404314 0.396555
H -3.014054 -2.842831 0.626299
H 4.762651 0.123208 2.297652
H 6.283777 1.401024 -0.381452