32
Extracted from mol_236.out
B 4.864039 -0.391759 0.683453
C 3.321104 -0.430917 0.376013
C 2.532742 -1.506286 0.828814
C 1.162232 -1.564515 0.573182
C 0.515281 -0.544544 -0.149425
C 1.295757 0.531873 -0.612175
C 2.665779 0.580032 -0.352181
C -0.940780 -0.643478 -0.460586
C -1.406211 -1.767732 -1.129412
C -2.767275 -1.910677 -1.488629
C -3.672906 -0.921294 -1.175886
C -3.257162 0.242504 -0.471207
C -4.186703 1.261344 -0.116057
C -3.789139 2.372245 0.596326
C -2.436434 2.506348 0.995458
C -1.507856 1.541699 0.660593
C -1.875941 0.389036 -0.094029
O 5.674802 0.670919 0.383535
O 5.432797 -1.474142 1.286826
H 3.009799 -2.309495 1.396321
H 0.573758 -2.406305 0.947921
H 0.825762 1.325336 -1.198647
H 3.231728 1.431866 -0.748003
H -0.694909 -2.549189 -1.408696
H -3.090252 -2.806080 -2.026252
H -4.724912 -1.018228 -1.458921
H -5.231898 1.140883 -0.415558
H -4.515385 3.144387 0.863892
H -2.127582 3.377581 1.579378
H -0.473780 1.653302 0.989453
H 5.215208 1.420363 -0.011605
H 6.378334 -1.345079 1.440420