20
Extracted from mol_224.out
B 2.972870 -0.522004 0.378831
C 1.479704 -0.066764 0.207301
C 0.445643 -1.020228 0.167867
C -0.894571 -0.657265 0.017535
C -1.249988 0.697249 -0.099993
C -0.230617 1.669515 -0.062651
C 1.098592 1.285153 0.087621
S -2.907478 1.298917 -0.295214
C -3.920663 -0.208478 -0.298646
O 3.235564 -1.855759 0.501354
O 4.038281 0.340004 0.413706
H 0.701283 -2.079320 0.258308
H -1.655615 -1.438402 -0.006458
H -0.488335 2.728606 -0.152274
H 1.855349 2.078426 0.111654
H -3.838373 -0.757868 0.651166
H -4.957655 0.135838 -0.420510
H -3.665082 -0.869902 -1.140082
H 4.181496 -2.026591 0.601730
H 3.799595 1.268872 0.318640