22
Extracted from mol_457.out
B -1.477851 1.662977 -0.116214
C -1.212678 0.093174 -0.119917
C -2.299761 -0.796842 -0.118079
C -2.107661 -2.182406 -0.130105
C -0.813443 -2.713086 -0.148790
C 0.284520 -1.852635 -0.156209
C 0.085951 -0.462531 -0.139312
C 1.229968 0.491289 -0.142656
O 1.096272 1.696288 -0.064852
O 2.431486 -0.101584 -0.235197
C 3.567652 0.762764 -0.244823
O -1.741929 2.263144 -1.308835
O -1.660817 2.388205 1.031591
H -3.320412 -0.402293 -0.113911
H -2.972558 -2.851936 -0.129082
H -0.661576 -3.795583 -0.160280
H 1.301551 -2.247396 -0.175629
H 3.523826 1.455611 -1.099049
H 4.446611 0.111089 -0.326573
H 3.615977 1.356404 0.681085
H -1.909286 3.209169 -1.196317
H -1.405842 1.916179 1.831940