16
Extracted from mol_168.out
B 2.115398 0.266457 -0.051894
C 0.531156 0.080448 -0.024938
C -0.092936 -0.877830 0.779882
C -1.480780 -1.044803 0.811234
C -2.297131 -0.249839 0.014177
C -1.708639 0.711598 -0.814254
C -0.321764 0.867065 -0.827555
F -2.008175 -1.974923 1.610567
F 0.642432 -1.691014 1.569672
O 2.969025 -0.646284 0.474702
O 2.684777 1.364439 -0.624419
H -3.378242 -0.400166 0.053649
H -2.339396 1.335810 -1.451362
H 0.112343 1.616242 -1.496784
H 2.517292 -1.386900 0.897040
H 2.054642 2.029700 -0.919720