24
Extracted from mol_86.out
B 3.125977 0.172952 -0.188084
C 1.591108 -0.137176 -0.106162
C 0.626919 0.886217 0.056177
C -0.739119 0.614855 0.120496
C -1.184423 -0.733947 0.015570
C -0.240634 -1.752841 -0.142001
C 1.127542 -1.454935 -0.197790
O -2.523165 -0.917167 0.082380
C -3.042628 -2.223324 -0.013757
O -1.716311 1.543061 0.281893
C -1.358403 2.897611 0.404565
O 4.013218 -0.860422 -0.095311
O 3.640101 1.435076 -0.356764
H 0.953765 1.924709 0.152005
H -0.566565 -2.790636 -0.221017
H 1.846920 -2.268439 -0.317114
H -2.787880 -2.698203 -0.979100
H -2.681891 -2.872364 0.805367
H -4.134957 -2.131273 0.060253
H -0.713417 3.077716 1.285095
H -2.294062 3.459952 0.529840
H -0.836274 3.271836 -0.496311
H 4.925839 -0.555671 -0.186703
H 2.968341 2.112416 -0.493526