20
Extracted from mol_461.out
B -2.766973 0.595764 0.103182
C -1.321712 -0.035705 0.115347
C -0.208710 0.782642 0.367131
C 1.082431 0.248156 0.392990
C 1.295922 -1.118302 0.170448
C 0.194656 -1.937491 -0.101800
C -1.094698 -1.405183 -0.126965
O 2.106642 1.132211 0.675439
C 3.344349 0.917411 0.141602
F 4.012731 2.074401 0.207932
F 4.038212 0.004113 0.873405
O -2.877918 1.952670 0.091293
O -3.916553 -0.146397 0.109939
H -0.336572 1.852178 0.545787
H 2.298960 -1.542143 0.233836
H 0.353741 -3.003622 -0.284321
H -1.932410 -2.075228 -0.348769
H 3.302789 0.559066 -0.904201
H -3.799961 2.242757 0.106572
H -3.774927 -1.097299 0.180584