16
Extracted from mol_459.out
B -2.149756 -0.012324 0.098787
C -0.549053 -0.003002 0.025002
C 0.240689 1.050098 0.515616
C 1.630262 1.097235 0.471840
C 2.287221 0.013007 -0.104901
C 1.592545 -1.078755 -0.619981
C 0.204341 -1.047307 -0.536554
F -0.448375 -2.117677 -1.042726
F 3.618936 0.020247 -0.165215
F -0.375041 2.113312 1.080093
O -2.879490 -1.047015 -0.389190
O -2.843414 1.014163 0.652212
H 2.180421 1.948430 0.873050
H 2.113328 -1.923996 -1.070026
H -2.341787 -1.749960 -0.771801
H -2.280829 1.723542 0.983793