16
Extracted from mol_156.out
B 2.023881 0.662796 -0.220861
C 0.518618 0.173838 -0.051824
C -0.041527 -0.855858 -0.821286
C -1.351623 -1.307904 -0.696567
C -2.158623 -0.683554 0.251480
C -1.681552 0.356903 1.048183
C -0.357712 0.764548 0.881935
F -3.421935 -1.094035 0.394187
F 0.723363 -1.468376 -1.756659
O 2.800042 0.292633 -1.270709
O 2.606031 1.494681 0.690011
H -1.731488 -2.118269 -1.319741
H -2.346052 0.828149 1.774422
H 0.001137 1.591380 1.503217
H 2.352693 -0.317257 -1.869723
H 2.064747 1.680325 1.463935