23
Extracted from mol_128.out
B -3.167417 0.414089 0.149265
C -1.605576 0.300095 0.060010
C -0.996160 -0.948445 -0.195171
C 0.384975 -1.117884 -0.285240
C 1.208133 0.021786 -0.110967
C 0.638851 1.277420 0.143314
C -0.751620 1.400587 0.225180
O 2.545016 -0.201570 -0.208332
C 3.445551 0.870491 -0.044375
C 1.017934 -2.457464 -0.557262
O -3.916734 -0.713954 -0.026405
O -3.838294 1.585431 0.395719
H -1.638732 -1.823501 -0.328108
H 1.266281 2.159123 0.277788
H -1.159668 2.398536 0.425343
H 3.292894 1.656940 -0.805940
H 4.455023 0.452900 -0.162085
H 3.362509 1.327798 0.958471
H 1.699382 -2.751116 0.258854
H 0.252757 -3.239187 -0.670568
H 1.630163 -2.432097 -1.474370
H -4.862287 -0.529834 0.050476
H -3.262980 2.349856 0.511565