19
Extracted from mol_374.out
B 2.476498 -0.148217 0.492229
C 0.993516 0.199469 0.071671
C -0.084914 -0.665284 0.329963
C -1.386041 -0.330801 -0.051947
C -1.641716 0.882466 -0.702937
C -0.576159 1.745500 -0.963053
C 0.727534 1.414647 -0.582636
Cl -0.882951 3.262890 -1.773907
C -2.541115 -1.269735 0.204919
F -3.559116 -0.642615 0.821287
F -3.032356 -1.771764 -0.943480
F -2.184066 -2.312551 0.974934
O 3.436789 0.785059 0.252098
O 2.846654 -1.325357 1.077945
H 0.070590 -1.617777 0.842615
H -2.654799 1.156939 -1.001551
H 1.544353 2.106767 -0.794420
H 4.313270 0.490660 0.534430
H 2.134027 -1.960295 1.211842