16
Extracted from mol_109.out
B 1.995104 -0.344378 -0.154952
C 0.450737 -0.047710 0.013396
C -0.086633 1.023456 0.751653
C -1.463473 1.225234 0.885111
C -2.328700 0.326845 0.265390
C -1.857604 -0.746931 -0.485810
C -0.476303 -0.911623 -0.605192
F -3.648574 0.511006 0.393141
Cl 0.972709 2.194384 1.511939
O 2.794100 -0.459375 0.934854
O 2.541892 -0.571986 -1.390414
H -1.862049 2.065068 1.455111
H -2.566220 -1.429469 -0.958626
H -0.101818 -1.757205 -1.190865
H 3.709720 -0.657336 0.693172
H 1.927114 -0.419979 -2.117908