19
Extracted from mol_144.out
B -2.436462 -0.543095 -0.192962
C -1.002002 0.080053 0.002792
C 0.136643 -0.728404 -0.176921
C 1.431255 -0.227462 -0.019767
C 1.587039 1.120954 0.330024
C 0.488923 1.953324 0.520990
C -0.792853 1.425321 0.355291
F 2.815114 1.622475 0.486088
C 2.648412 -1.100774 -0.216784
F 3.400891 -1.159323 0.895366
F 3.435132 -0.639174 -1.204273
F 2.305406 -2.360114 -0.535027
O -3.598966 0.174669 -0.129651
O -2.518932 -1.878721 -0.443351
H 0.006555 -1.777567 -0.446542
H 0.657353 2.996421 0.796066
H -1.644015 2.096437 0.514613
H -3.487608 1.119501 0.023037
H -3.431886 -2.174521 -0.558990