16
Extracted from mol_395.out
B 2.002613 -0.036049 -0.426504
C 0.445102 -0.050145 -0.145176
C -0.150283 0.696569 0.878394
C -1.526051 0.682481 1.124373
C -2.352186 -0.107172 0.320013
C -1.791922 -0.866189 -0.712049
C -0.414786 -0.835405 -0.937558
Br -2.251141 1.726634 2.535195
F 0.631714 1.468215 1.668452
O 2.900426 0.697656 0.287123
O 2.451745 -0.812984 -1.451788
H -3.427489 -0.121126 0.508477
H -2.440425 -1.482733 -1.339312
H 0.023667 -1.428054 -1.743434
H 2.488578 1.215670 0.991351
H 3.410435 -0.747368 -1.557558