21
Extracted from mol_388.out
B 2.712613 -0.347215 0.330298
C 1.164443 -0.067987 0.140442
C 0.234838 -1.123172 0.071794
C -1.145954 -0.917074 -0.100754
C -1.604093 0.402129 -0.188005
C -0.708817 1.481103 -0.117253
C 0.662816 1.241147 0.038093
C -1.218211 2.874453 -0.203416
O -2.381444 3.176389 -0.339215
C -2.101386 -2.080704 -0.212621
O 3.171940 -1.410155 1.049257
O 3.663543 0.461926 -0.216279
H 0.595938 -2.156065 0.141166
H -2.668035 0.623824 -0.310388
H 1.342405 2.099361 0.100754
H -0.422829 3.663289 -0.132412
H -3.076327 -1.845827 0.241599
H -1.702262 -2.982866 0.275752
H -2.288947 -2.336125 -1.270461
H 2.471089 -1.894286 1.499981
H 3.298681 1.137856 -0.798333