16
Extracted from mol_127.out
B 2.036870 -0.099682 0.112010
C 0.463835 0.030074 -0.001857
C -0.415402 -0.947060 0.477249
C -1.805731 -0.830133 0.376019
C -2.349980 0.306429 -0.227722
C -1.500710 1.302864 -0.717993
C -0.116513 1.163518 -0.604907
Cl -2.830792 -2.092443 0.998559
F 0.085403 -2.057832 1.065378
O 2.779660 0.925298 -0.392187
O 2.675869 -1.161395 0.676336
H -3.435285 0.395596 -0.305826
H -1.928908 2.190702 -1.189690
H 0.547290 1.941823 -0.987513
H 3.727289 0.768328 -0.283015
H 2.067107 -1.836089 1.005158