16
Extracted from mol_74.out
B 2.063637 0.024520 -0.097747
C 0.488555 0.005888 -0.029674
C -0.239729 1.108777 -0.512648
C -1.629059 1.124271 -0.463422
C -2.339229 0.037857 0.066616
C -1.634420 -1.069107 0.548449
C -0.239306 -1.076973 0.497862
Cl -4.076501 0.084479 0.114512
F -2.295927 2.184521 -0.925390
O 2.861315 -0.948586 0.438627
O 2.663209 1.073883 -0.724811
H 0.275784 1.973923 -0.935592
H -2.191477 -1.914011 0.957777
H 0.278883 -1.963333 0.879155
H 2.386946 -1.651969 0.895827
H 3.627322 1.005859 -0.709539