19
Extracted from mol_368.out
B 2.383249 0.726447 -0.144162
C 0.988674 -0.004954 -0.091762
C -0.198449 0.731854 -0.255831
C -1.461006 0.122333 -0.220356
C -1.537032 -1.265353 -0.011568
C -0.374917 -2.018736 0.160696
C 0.873434 -1.391660 0.118376
C -2.704579 0.934722 -0.399878
Br -3.315358 0.984581 -2.300208
O 2.402578 2.087250 -0.081187
O 3.579631 0.070493 -0.255783
H -0.128114 1.811642 -0.415015
H -2.514609 -1.755826 0.014721
H -0.443405 -3.096443 0.331468
H 1.769975 -2.004143 0.268533
H -2.559436 1.986679 -0.128121
H -3.559311 0.523921 0.150544
H 3.299841 2.441322 -0.144571
H 3.498834 -0.884128 -0.362802