32
Extracted from mol_287.out
B 2.183594 0.682219 2.162327
C 1.395290 0.259171 0.861831
C 2.036263 -0.162649 -0.327438
C 1.286021 -0.523758 -1.449343
C -0.113436 -0.469772 -1.399797
C -0.797793 -0.060787 -0.248403
C -0.006536 0.295143 0.860036
C -2.335199 0.006722 -0.157757
C -2.769601 1.452407 0.178529
C -3.013469 -0.403849 -1.477712
C -2.825840 -0.947853 0.956142
O 3.411210 -0.193739 -0.309902
C 4.121734 -0.606397 -1.458767
O 1.453220 1.076247 3.249646
O 3.542953 0.673287 2.250148
H 1.767862 -0.849469 -2.371545
H -0.661994 -0.759888 -2.296921
H -0.487925 0.622257 1.784703
H -2.437822 2.156211 -0.602026
H -3.868211 1.518711 0.252272
H -2.350037 1.794518 1.136988
H -2.724780 0.256709 -2.311029
H -2.769649 -1.440218 -1.761708
H -4.108285 -0.341003 -1.370801
H -3.924662 -0.907612 1.044618
H -2.539435 -1.989358 0.737372
H -2.401905 -0.683680 1.937249
H 5.189188 -0.551727 -1.204695
H 3.872727 -1.644795 -1.740537
H 3.923746 0.055914 -2.320087
H 2.028861 1.312829 3.988883
H 3.923911 0.374207 1.407724