16
Extracted from mol_155.out
B 2.007208 -0.045330 0.242232
C 0.438212 0.019191 0.073915
C -0.315588 1.024972 0.713213
C -1.703457 1.103523 0.580708
C -2.382362 0.164951 -0.205303
C -1.672894 -0.847962 -0.855942
C -0.291238 -0.891597 -0.698934
F 0.376160 -1.888252 -1.344490
O 2.593303 0.905540 1.024315
O 2.793906 -0.990297 -0.345935
H 0.217832 1.755776 1.326043
H -2.258899 1.895558 1.089088
H -3.468826 0.218504 -0.314720
H -2.167968 -1.597275 -1.476902
H 3.551710 0.788289 1.070295
H 2.282901 -1.615589 -0.877584