20
Extracted from mol_451.out
B 2.806041 -0.239204 -0.661274
C 1.314193 0.167945 -0.346907
C 0.323050 -0.790506 -0.104240
C -1.004229 -0.420498 0.173942
C -1.350786 0.937535 0.210971
C -0.354931 1.892818 -0.032243
C 0.960781 1.533089 -0.308050
Cl -0.798892 3.588274 0.016776
O -1.877459 -1.435326 0.392890
C -3.227284 -1.138310 0.677414
O 3.240964 -1.533894 -0.737884
O 3.713490 0.754904 -0.869244
H 0.535112 -1.864072 -0.119096
H -2.365860 1.269972 0.422254
H 1.713196 2.300380 -0.492912
H -3.711453 -0.591584 -0.152140
H -3.330536 -0.543380 1.603170
H -3.737284 -2.101423 0.814949
H 2.555740 -2.194923 -0.586999
H 4.596147 0.408204 -1.056096