22
Extracted from mol_250.out
B -2.012973 -0.993225 0.465782
C -0.670415 -0.238472 0.126996
C -0.593154 1.145600 -0.180408
C 0.664371 1.694479 -0.471006
C 1.825863 0.917977 -0.477321
C 1.776399 -0.450267 -0.182225
C 0.518483 -0.993371 0.116629
C 3.024470 -1.300248 -0.161932
C -1.813818 2.037636 -0.200407
O -3.198096 -0.591444 -0.076778
O -2.042876 -2.091985 1.288023
H 0.737106 2.761104 -0.704752
H 2.785389 1.386328 -0.718631
H 0.465964 -2.068386 0.329341
H 3.800887 -0.895082 -0.829445
H 2.814815 -2.335639 -0.474247
H 3.460865 -1.348816 0.852025
H -2.375880 1.980255 0.745668
H -2.517722 1.736630 -0.991742
H -1.530800 3.087952 -0.366652
H -3.926670 -1.159705 0.209853
H -1.192210 -2.281321 1.701232