18
Extracted from mol_97.out
B 1.977522 0.067320 -0.174421
C 0.419824 -0.185210 -0.051503
C -0.018086 -1.524257 -0.001041
C -1.373937 -1.854341 0.073163
C -2.337972 -0.840606 0.114780
C -1.933611 0.492012 0.079519
C -0.571357 0.827090 -0.006434
C -0.218913 2.278811 -0.009383
O -1.040439 3.168620 0.033565
O 2.881015 -0.675832 0.537055
O 2.461659 1.000388 -1.038454
H 0.717175 -2.334831 -0.043494
H -1.678904 -2.904243 0.097553
H -3.399990 -1.092788 0.177049
H -2.657901 1.309061 0.120990
H 0.870640 2.509422 -0.050997
H 2.474319 -1.275264 1.174204
H 3.428952 1.034648 -1.032151