22
Extracted from mol_247.out
B -2.717608 -1.241564 -0.000041
C -1.686687 -0.051459 0.009681
C -0.300661 -0.259142 -0.004412
C 0.633078 0.793698 0.002980
C 0.123985 2.105855 0.027228
C -1.249715 2.352669 0.040436
C -2.141615 1.283717 0.029725
F 0.939831 3.155713 0.037560
C 2.104439 0.533097 -0.016410
O 2.972214 1.371207 -0.021330
O 2.372762 -0.794149 -0.028990
C 3.753889 -1.150283 -0.051552
O -4.043115 -0.938408 -0.091891
O -2.362985 -2.560482 0.080570
H 0.112071 -1.270292 -0.027786
H -1.589757 3.390362 0.057981
H -3.216869 1.478450 0.037206
H 4.273963 -0.761523 0.837596
H 4.249827 -0.743198 -0.946245
H 3.787728 -2.247140 -0.063241
H -4.598302 -1.729655 -0.082338
H -1.416475 -2.717474 0.173275