20
Extracted from mol_274.out
B -2.942484 0.005798 0.073120
C -1.379985 -0.093233 0.099993
C -0.716225 -0.873214 1.066835
C 0.667364 -0.948044 1.080958
C 1.476077 -0.267059 0.144180
C 0.791673 0.496751 -0.820250
C -0.595394 0.590759 -0.842523
F 1.497627 1.155438 -1.764926
O 2.807512 -0.441601 0.257093
C 3.729885 0.467927 -0.326856
F 1.288131 -1.688243 2.008035
O -3.646580 -0.692303 1.017372
O -3.520446 0.785219 -0.893372
H -1.275167 -1.426279 1.824299
H -1.056193 1.203882 -1.619793
H 3.489367 1.511902 -0.065128
H 4.711363 0.207253 0.092945
H 3.763819 0.373214 -1.422862
H -4.606489 -0.611054 0.975503
H -4.483858 0.824361 -0.884620