30
Extracted from mol_146.out
B 5.251437 -0.049030 0.151323
C 3.681139 -0.026477 0.172245
C 2.997310 0.207812 1.385870
C 1.615396 0.233581 1.431779
C 0.830160 0.026830 0.275246
C 1.497782 -0.207972 -0.935770
C 2.897312 -0.231423 -0.973161
O -0.508701 0.074575 0.444769
C -1.359498 -0.129998 -0.681546
C -2.793249 -0.031303 -0.227982
C -3.479448 -1.170413 0.217959
C -4.798762 -1.075525 0.668723
C -5.446335 0.163988 0.680532
C -4.769908 1.306394 0.240648
C -3.450754 1.207600 -0.209523
F 0.984502 0.458495 2.591483
O 6.000303 -0.236803 -0.981072
O 5.916237 0.130084 1.328724
H 3.551456 0.373507 2.312447
H 0.932591 -0.373617 -1.853313
H 3.370888 -0.420365 -1.943165
H -1.160854 -1.124160 -1.122134
H -1.144561 0.631563 -1.453515
H -2.974259 -2.140805 0.212430
H -5.323158 -1.971417 1.011713
H -6.479097 0.239488 1.031424
H -5.271816 2.277638 0.248063
H -2.922889 2.103178 -0.550353
H 5.481822 -0.347625 -1.785799
H 6.874955 0.102196 1.210469