23
Extracted from mol_60.out
B -3.220551 1.094542 0.352340
C -2.001135 0.118179 0.101104
C -0.681025 0.595931 0.115538
C 0.423735 -0.250089 -0.093583
C 0.199110 -1.617177 -0.341929
C -1.111230 -2.100793 -0.364617
C -2.199616 -1.254990 -0.140480
N 1.707768 0.324585 -0.039957
C 2.942644 -0.273726 -0.209559
O 3.096560 -1.454826 -0.452905
C 4.112006 0.689633 -0.053071
O -3.203001 2.396435 -0.057527
O -4.351143 0.686345 0.995362
H -0.495232 1.658411 0.315991
H 1.049052 -2.274302 -0.510937
H -1.277839 -3.163271 -0.563332
H -3.214217 -1.664748 -0.174252
H 1.719206 1.318080 0.161136
H 4.174493 1.061360 0.983490
H 5.037843 0.154416 -0.296121
H 4.008647 1.561700 -0.719609
H -2.437777 2.603383 -0.605564
H -4.278296 -0.209080 1.345182