23
Extracted from mol_246.out
B 3.209831 -0.489082 -0.171752
C 1.643846 -0.361881 -0.149761
C 1.034829 0.903024 -0.115777
C -0.354848 1.090287 -0.093589
C -1.198197 -0.056334 -0.106646
C -0.606110 -1.333418 -0.142004
C 0.780311 -1.470728 -0.162716
O -2.531199 0.122795 -0.084476
C -3.401084 -0.988712 -0.095475
C -0.812211 2.515403 -0.057340
O -0.047997 3.456217 -0.038577
O -2.145348 2.698374 -0.047530
O 3.951064 0.653691 -0.196801
O 3.879783 -1.685507 -0.166531
H 1.654582 1.801611 -0.105413
H -1.230195 -2.226480 -0.153874
H 1.183654 -2.490052 -0.191883
H -4.420090 -0.579827 -0.072713
H -3.253605 -1.634874 0.788321
H -3.278770 -1.597310 -1.009238
H -2.268386 3.663292 -0.024224
H 4.900042 0.471475 -0.204523
H 3.310096 -2.461963 -0.136562