19
Extracted from mol_79.out
B -2.735565 0.635024 0.207527
C -1.210507 0.252117 0.053966
C -0.264944 1.254925 -0.206165
C 1.097553 0.967143 -0.357887
C 1.561475 -0.363384 -0.244751
C 0.607358 -1.365055 0.023063
C -0.742475 -1.070113 0.168013
C 2.972212 -0.863523 -0.373745
O 3.264854 -2.033124 -0.257494
O 3.895605 0.074257 -0.628381
Cl 2.133844 2.334987 -0.684195
O -3.743727 -0.286062 0.262882
O -3.059408 1.954033 0.283256
H -0.590756 2.292524 -0.294576
H 0.975109 -2.388561 0.113406
H -1.433413 -1.891893 0.384276
H 4.745932 -0.395956 -0.683051
H -3.460459 -1.201381 0.156813
H -4.012689 2.094042 0.362616