31
Extracted from mol_24.out
B 4.397008 -1.375644 2.059818
C 3.185640 -0.859400 1.206831
C 1.883761 -0.861546 1.742118
C 0.779096 -0.400897 1.022314
C 0.958288 0.067249 -0.288542
C 2.244927 0.084337 -0.850423
C 3.330534 -0.370116 -0.107497
O -0.046464 0.524852 -1.092381
C -1.385727 0.293946 -0.766505
C -2.227736 0.554760 -2.011694
C -3.723412 0.461524 -1.680564
C -4.059112 1.339536 -0.467939
C -3.106028 1.029192 0.685851
O -1.748994 1.160212 0.288047
O 5.707354 -1.275604 1.666111
O 4.145434 -1.957203 3.269254
H 1.734679 -1.225418 2.762159
H -0.205674 -0.371658 1.487457
H 2.362704 0.452454 -1.871981
H 4.317693 -0.348889 -0.584545
H -1.513696 -0.759888 -0.427748
H -1.941136 -0.160790 -2.798883
H -1.970215 1.565483 -2.370300
H -3.986041 -0.589116 -1.455380
H -4.327460 0.750581 -2.555889
H -5.101747 1.185108 -0.141803
H -3.955579 2.405341 -0.736746
H -3.246662 1.723385 1.528014
H -3.293094 0.001026 1.064435
H 5.830321 -0.820148 0.825670
H 4.961337 -2.222668 3.714060