20
Extracted from mol_453.out
B -2.501190 0.675398 0.038717
C -1.134938 -0.106803 -0.070076
C -0.968832 -1.446189 -0.474125
C 0.293166 -2.050286 -0.512843
C 1.423703 -1.327382 -0.134696
C 1.310076 0.010814 0.268482
C 0.038793 0.593882 0.279232
C 2.537080 0.790727 0.702117
O 3.726446 0.387476 0.057293
Cl -2.327161 -2.425017 -1.003007
O -2.427265 2.036531 -0.113224
O -3.656798 0.014340 0.330659
H 0.378718 -3.087746 -0.841699
H 2.410846 -1.795416 -0.162800
H -0.061593 1.644214 0.568592
H 2.344144 1.876005 0.579354
H 2.717052 0.629076 1.780008
H 3.600986 0.502039 -0.895059
H -3.254909 2.515526 0.014088
H -4.448325 0.562810 0.391811