26
Extracted from mol_344.out
B 4.414332 -0.472808 0.094682
C 2.876709 -0.172151 -0.106467
C 2.436220 0.883173 -0.935227
C 1.087742 1.144240 -1.108858
C 0.094808 0.376930 -0.460602
C 0.519372 -0.670008 0.370513
C 1.885097 -0.933331 0.533042
O -1.184937 0.725455 -0.702762
C -2.241208 -0.005017 -0.095235
C -3.560972 0.592006 -0.559755
C -4.771694 -0.121386 0.042925
F 0.695544 2.143968 -1.908735
O 4.877268 -1.729502 0.357687
O 5.362424 0.505422 0.018102
H 3.142230 1.515546 -1.482255
H -0.212995 -1.282336 0.897604
H 2.173716 -1.752122 1.200317
H -2.174303 -1.073196 -0.379406
H -2.153923 0.050604 1.007332
H -3.594675 0.546401 -1.661537
H -3.571386 1.662430 -0.293021
H -4.793338 -1.189396 -0.232708
H -4.771578 -0.062310 1.144544
H -5.711362 0.329736 -0.311488
H 4.189899 -2.401756 0.292792
H 4.987012 1.389407 -0.060763