18
Extracted from mol_430.out
B -2.556092 -0.128545 -0.092748
C -0.964961 -0.019497 -0.036632
C -0.209631 0.902922 0.713875
C 1.198584 0.908176 0.687994
C 1.887081 -0.028825 -0.105440
C 1.145013 -0.952089 -0.857020
C -0.242501 -0.944493 -0.820994
C 3.379074 -0.090270 -0.188276
O 3.966162 -0.896973 -0.871970
Cl 2.082216 2.076406 1.639115
Cl -1.002481 2.106062 1.730189
O -3.435300 0.658235 0.577156
O -3.047837 -1.113165 -0.896918
H 1.701305 -1.669301 -1.464895
H -0.808224 -1.668288 -1.410052
H 3.929697 0.659416 0.423697
H -3.007808 1.330908 1.127035
H -4.014297 -1.130678 -0.890004