16
Extracted from mol_392.out
B 2.012449 -0.261497 0.209128
C 0.451463 -0.002561 0.030277
C -0.190574 1.179571 -0.382791
C -1.579638 1.281501 -0.502326
C -2.384638 0.181074 -0.206462
C -1.778865 -1.008128 0.206519
C -0.392866 -1.097454 0.322315
Br -2.862996 -2.523456 0.614348
Br 0.789775 2.783691 -0.825564
O 3.004226 0.636283 -0.022608
O 2.360729 -1.510148 0.634729
H -2.036151 2.218462 -0.826270
H -3.470005 0.252703 -0.297689
H 0.067500 -2.031643 0.646169
H 2.690687 1.503386 -0.321330
H 3.318904 -1.601784 0.721560