23
Extracted from mol_441.out
B 3.070654 0.386092 0.198954
C 1.574443 -0.017123 -0.065597
C 0.536167 0.573368 0.681519
C -0.811573 0.248385 0.492695
C -1.165641 -0.707639 -0.492380
C -0.140405 -1.294947 -1.246477
C 1.199511 -0.958675 -1.037651
C -2.606363 -1.094769 -0.720019
C -1.875577 0.947043 1.315152
O -2.728366 1.782154 0.544936
O 4.143535 -0.233682 -0.386329
O 3.325066 1.409251 1.064817
H 0.799464 1.314758 1.442258
H -0.399711 -2.031061 -2.013525
H 1.957076 -1.446173 -1.662985
H -3.008345 -1.647432 0.148172
H -2.714855 -1.740255 -1.604032
H -3.237783 -0.202563 -0.841077
H -2.541563 0.210389 1.794060
H -1.388697 1.515040 2.131934
H -2.167553 2.393500 0.047825
H 3.907250 -0.971717 -0.959678
H 4.273265 1.566055 1.167428