22
Extracted from mol_327.out
B 3.664386 0.372280 -0.071958
C 2.085385 0.261627 0.043029
C 1.356360 -0.572169 -0.817741
C -0.038945 -0.685655 -0.743899
C -0.760251 0.045031 0.226477
C -0.022643 0.877951 1.091275
C 1.359746 0.991687 1.003818
C -2.246495 0.052950 0.466814
O -2.763042 0.728972 1.328807
O -2.944407 -0.745627 -0.345709
C -4.359092 -0.768643 -0.151498
Cl -0.773387 -1.761592 -1.908785
O 4.321986 1.533757 0.197342
O 4.436235 -0.685791 -0.443835
H 1.866951 -1.151320 -1.591582
H -0.587767 1.434661 1.841035
H 1.882613 1.646677 1.707736
H -4.789741 0.233793 -0.297359
H -4.754760 -1.468270 -0.898120
H -4.608191 -1.109156 0.865203
H 3.732588 2.277607 0.365448
H 3.942468 -1.508772 -0.532421