26
Extracted from mol_312.out
B -0.360057 2.618356 0.174501
C -0.583729 1.057881 -0.066721
C 0.484430 0.156123 -0.305998
C 0.237387 -1.206603 -0.520572
C -1.072473 -1.692894 -0.498229
C -2.161603 -0.847000 -0.258058
C -1.877526 0.510898 -0.050973
C -3.574358 -1.376619 -0.194698
O 1.747543 0.695041 -0.332975
C 2.910581 -0.108600 -0.524426
C 3.372074 -0.798631 0.752101
O -1.410782 3.475469 0.354071
O 0.876673 3.172860 0.217315
H 1.053577 -1.904040 -0.708742
H -1.241900 -2.760199 -0.671044
H -2.730404 1.175160 0.133819
H -3.849458 -1.669397 0.834503
H -3.701538 -2.267115 -0.830006
H -4.305446 -0.620796 -0.522591
H 3.679287 0.597045 -0.875350
H 2.740483 -0.830941 -1.341292
H 2.625338 -1.515300 1.126143
H 4.309123 -1.347526 0.563799
H 3.561166 -0.057419 1.544280
H -2.275037 3.056068 0.299896
H 1.546649 2.488177 0.063180