18
Extracted from mol_380.out
B -1.892633 -0.575495 -0.399080
C -0.340522 -0.302008 -0.228934
C 0.256232 0.980279 -0.132437
C 1.651133 1.109358 -0.003097
C 2.477737 -0.009139 0.026071
C 1.885166 -1.268720 -0.067419
C 0.505584 -1.425557 -0.184082
F 2.661641 -2.357963 -0.043383
C -0.553902 2.232020 -0.126542
O -0.074451 3.341711 -0.038868
O -2.522957 -1.570909 0.295668
O -2.622450 0.148126 -1.288726
H 2.065093 2.117297 0.076792
H 3.562815 0.071126 0.120613
H 0.111765 -2.442715 -0.264289
H -1.656710 2.090668 -0.206502
H -1.965143 -2.005102 0.952297
H -3.548396 -0.132977 -1.315801