16
Extracted from mol_348.out
B -2.060844 0.053689 -0.047487
C -0.488609 -0.070646 0.049662
C 0.321188 1.073569 -0.085028
C 1.715154 1.013436 -0.032392
C 2.331657 -0.227411 0.169366
C 1.571134 -1.384386 0.315087
C 0.182508 -1.286259 0.248733
F -0.520128 -2.412017 0.406556
F 3.658453 -0.315549 0.226708
Br 2.775847 2.573839 -0.233691
O -2.720841 1.163823 0.407300
O -2.783098 -0.932778 -0.633998
H -0.143172 2.048089 -0.257406
H 2.057555 -2.347064 0.478814
H -2.166586 1.785226 0.893532
H -3.730216 -0.735562 -0.634096