16
Extracted from mol_444.out
B 2.043951 0.083761 -0.178789
C 0.476378 0.095777 0.017804
C -0.223995 -1.112155 0.199503
C -1.604606 -1.152717 0.402053
C -2.322531 0.050579 0.417485
C -1.672850 1.267501 0.234300
C -0.291971 1.268867 0.043006
F 0.300026 2.452627 -0.145258
F -3.639889 0.037594 0.606272
Cl -2.439922 -2.661164 0.637848
O 2.675181 -0.936342 -0.839000
O 2.800693 1.075600 0.352739
H 0.316287 -2.062423 0.205540
H -2.237978 2.200673 0.240155
H 2.079381 -1.559304 -1.271132
H 3.741843 0.951126 0.166574