26
Extracted from mol_4.out
B 3.858541 -1.122659 -0.469342
C 2.390776 -0.624802 -0.164964
C 1.933768 -0.369179 1.132319
C 0.651799 0.065425 1.436194
C -0.261675 0.272059 0.385702
C 0.140749 0.030215 -0.938720
C 1.446267 -0.405908 -1.164193
F 1.813955 -0.628629 -2.442016
O -1.486197 0.714425 0.752520
C -2.534947 0.921667 -0.205623
C -3.208730 -0.402623 -0.561588
C -3.493639 1.919742 0.431389
F 2.796528 -0.562295 2.148511
O 4.834534 -0.178865 -0.597446
O 4.061046 -2.466284 -0.586355
H 0.351970 0.249374 2.467896
H -0.515779 0.166507 -1.795921
H -2.102508 1.378495 -1.114494
H -4.014633 -0.238650 -1.294868
H -3.647365 -0.858792 0.340368
H -2.494851 -1.119183 -0.994660
H -2.971506 2.857253 0.675160
H -4.323322 2.148204 -0.255527
H -3.914462 1.507513 1.362412
H 5.723232 -0.512534 -0.773714
H 4.966448 -2.740475 -0.779401