16
Extracted from mol_85.out
B 2.012465 0.266988 0.073657
C 0.439239 0.118702 0.026164
C -0.432307 1.201507 -0.158411
C -1.819768 1.058508 -0.187038
C -2.384100 -0.207557 -0.019217
C -1.537990 -1.299393 0.165317
C -0.154252 -1.149404 0.183279
F -2.068415 -2.521840 0.329947
F 0.072212 2.431096 -0.339334
O 2.833878 -0.697227 -0.447438
O 2.577673 1.338910 0.681975
H -2.442403 1.942113 -0.341522
H -3.465651 -0.357678 -0.031100
H 0.458461 -2.040793 0.345329
H 2.367077 -1.389586 -0.929929
H 3.543880 1.305653 0.648320