20
Extracted from mol_106.out
B -1.252853 -1.926830 -0.379418
C -0.861108 -0.380733 -0.201474
C 0.459014 0.057157 0.096360
C 0.778837 1.414279 0.248217
C -0.221478 2.380373 0.105227
C -1.530691 2.007634 -0.186200
C -1.800941 0.648534 -0.328102
F -3.089823 0.324297 -0.611507
O 1.403647 -0.923009 0.227404
C 2.746906 -0.592045 0.526070
O -2.523814 -2.318621 -0.663553
O -0.324754 -2.907510 -0.251951
H 1.796172 1.729230 0.476204
H 0.030395 3.437224 0.224116
H -2.336299 2.733749 -0.304446
H 2.829437 -0.072250 1.496188
H 3.294954 -1.542076 0.580252
H 3.193893 0.037321 -0.262749
H -3.135624 -1.577318 -0.740627
H 0.544130 -2.529406 -0.050012