17
Extracted from mol_261.out
B 2.099589 -0.397091 0.224234
C 0.523652 -0.223250 0.042664
C -0.115737 1.035704 0.119325
C -1.500400 1.168390 -0.043978
C -2.292803 0.047042 -0.295647
C -1.677481 -1.198295 -0.379927
C -0.302402 -1.331826 -0.215196
F -2.422497 -2.288476 -0.627276
O 0.664488 2.138191 0.360535
O 2.688417 -1.629160 0.219065
O 2.927518 0.663112 0.387971
H -1.965473 2.157223 0.024043
H -3.373523 0.130078 -0.427478
H 0.111480 -2.340969 -0.300916
H 0.123641 2.938168 0.384344
H 2.076376 -2.366112 0.128890
H 2.435155 1.497271 0.399346