33
Extracted from mol_41.out
B 4.331711 -1.638578 0.103279
C 3.578027 -0.272110 -0.171522
C 2.174036 -0.218765 -0.102880
C 1.479528 0.979792 -0.343788
C 2.211581 2.139303 -0.661802
C 3.602968 2.096663 -0.735368
C 4.284912 0.901991 -0.490371
N 0.080471 1.091324 -0.280925
C -0.853384 0.100316 -0.073295
O -0.611209 -1.074767 0.105748
O -2.079027 0.663131 -0.104177
C -3.303803 -0.123411 0.092380
C -4.405411 0.931804 -0.028302
C -3.302397 -0.751568 1.490141
C -3.434887 -1.174727 -1.014942
O 3.752022 -2.846607 -0.143438
O 5.602397 -1.674997 0.600170
H 1.594336 -1.105033 0.152721
H 1.682296 3.077764 -0.854753
H 4.155250 3.005102 -0.991035
H 5.376760 0.884751 -0.568993
H -0.309035 2.015721 -0.426675
H -4.283264 1.710377 0.740359
H -5.394302 0.466062 0.101040
H -4.373856 1.414170 -1.017393
H -2.501395 -1.495292 1.590793
H -4.268677 -1.247233 1.673910
H -3.165763 0.024626 2.259846
H -4.407753 -1.683697 -0.927572
H -3.388436 -0.696243 -2.006183
H -2.637568 -1.925829 -0.945981
H 2.882723 -2.771054 -0.553995
H 5.931154 -0.802988 0.845603