36
Extracted from mol_46.out
B 0.163144 -3.827308 0.271242
C 0.096445 -2.263722 0.159163
C 1.271717 -1.493803 0.145711
C 1.233810 -0.092182 0.046753
C -0.022701 0.532330 -0.039237
C -1.221240 -0.202320 -0.028776
C -1.139931 -1.601909 0.070995
C -2.538840 0.487384 -0.111115
C -3.604895 -0.073011 -0.841138
C -4.841367 0.571748 -0.920501
C -5.042933 1.793558 -0.270774
C -3.995218 2.363210 0.459318
C -2.759009 1.717611 0.538132
C 2.487730 0.711215 0.024391
C 3.591777 0.351443 0.821342
C 4.768795 1.103213 0.803713
C 4.871343 2.234234 -0.012256
C 3.784838 2.604665 -0.810712
C 2.608159 1.852133 -0.792514
O -1.015160 -4.525766 0.271713
O 1.396386 -4.416235 0.362993
H 2.236380 -2.004559 0.190815
H -0.069829 1.620954 -0.116154
H -2.057565 -2.193705 0.104420
H -3.454676 -1.016067 -1.372309
H -5.650720 0.119765 -1.500679
H -6.010759 2.298359 -0.332566
H -4.143055 3.313671 0.979573
H -1.957813 2.162545 1.133537
H 3.517738 -0.516885 1.480652
H 5.608954 0.807404 1.438194
H 5.792496 2.822960 -0.026277
H 3.855917 3.481820 -1.459959
H 1.776976 2.139696 -1.441263
H -0.937786 -5.483942 0.348062
H 1.400891 -5.378506 0.425515