41
Extracted from mol_359.out
B 7.150468 0.572746 -0.059167
C 5.596981 0.326109 -0.066907
C 4.879437 0.346325 -1.279227
C 3.502616 0.131214 -1.317431
C 2.770627 -0.115525 -0.138798
C 3.480525 -0.137366 1.077419
C 4.858052 0.078564 1.104990
C 1.301969 -0.343095 -0.176102
C 0.479537 0.345169 -1.088009
C -0.898577 0.129151 -1.122869
C -1.517524 -0.782733 -0.252963
C -0.697492 -1.471246 0.655718
C 0.680744 -1.257635 0.695691
C -3.016516 -0.985899 -0.265860
C -3.764918 -0.051763 0.705945
C -5.282014 -0.286886 0.776399
C -6.073043 -0.037726 -0.518396
C -6.013937 1.400957 -1.039192
O 7.920653 0.564152 1.073988
O 7.775178 0.810111 -1.248164
H 5.422035 0.527441 -2.210653
H 2.986002 0.129246 -2.280557
H 2.941444 -0.299601 2.013967
H 5.357972 0.059379 2.080889
H 0.923364 1.077358 -1.766994
H -1.508836 0.683988 -1.842463
H -1.145864 -2.200794 1.337436
H 1.290416 -1.833428 1.396501
H -3.391570 -0.832865 -1.291579
H -3.248010 -2.033233 -0.002619
H -3.339780 -0.184742 1.716108
H -3.552064 0.996805 0.433093
H -5.464734 -1.325794 1.107686
H -5.696216 0.358362 1.572923
H -5.728964 -0.729510 -1.308337
H -7.127479 -0.309138 -0.333170
H -4.992369 1.696599 -1.329737
H -6.654827 1.529862 -1.926564
H -6.358530 2.118076 -0.274237
H 7.430201 0.389797 1.885144
H 8.725042 0.947566 -1.134155