36
Extracted from mol_48.out
B 4.331030 0.389483 1.175609
C 3.252773 -0.172184 0.171563
C 1.888931 0.090754 0.395536
C 0.901492 -0.392775 -0.473478
C 1.274684 -1.157560 -1.590606
C 2.622788 -1.438635 -1.821200
C 3.599019 -0.947699 -0.950484
N -0.470069 -0.109521 -0.231709
C -1.034817 1.165611 -0.119179
C -0.427211 2.423462 -0.228787
C -1.237088 3.552268 -0.094966
C -2.621053 3.440261 0.139138
C -3.223566 2.186663 0.237448
C -2.432768 1.035370 0.105816
C -2.721041 -0.385717 0.133936
C -3.892087 -1.132989 0.328951
C -3.820820 -2.525653 0.315911
C -2.588437 -3.176848 0.117047
C -1.408504 -2.457484 -0.080007
C -1.486215 -1.058254 -0.078807
O 3.936234 1.319344 2.088725
O 5.640252 -0.008472 1.184346
H 1.592732 0.678038 1.267122
H 0.505591 -1.517835 -2.277220
H 2.910973 -2.031146 -2.693591
H 4.650024 -1.169230 -1.167352
H 0.643887 2.522076 -0.413086
H -0.783787 4.544017 -0.174900
H -3.226044 4.344699 0.241186
H -4.299525 2.100787 0.411567
H -4.848099 -0.628498 0.492810
H -4.726486 -3.118665 0.466001
H -2.551128 -4.269608 0.119461
H -0.457056 -2.972330 -0.224461
H 4.658429 1.586638 2.673106
H 5.846962 -0.708370 0.554554