20
Extracted from mol_78.out
B 2.480760 -0.462343 -0.138629
C 1.109187 0.290702 -0.295860
C -0.124582 -0.374322 -0.120614
C -1.348567 0.291749 -0.251155
C -1.320433 1.667730 -0.562815
C -0.123819 2.345468 -0.743633
C 1.088038 1.657591 -0.614660
F -2.483546 2.316148 -0.686397
O -2.575774 -0.262840 -0.109029
C -2.675443 -1.635278 0.194001
O 3.612686 0.140798 -0.599682
O 2.606643 -1.696464 0.445997
H -0.135680 -1.443398 0.105375
H -0.161140 3.410020 -0.986654
H 2.030561 2.188965 -0.762240
H -2.219948 -2.264919 -0.592490
H -2.201577 -1.878823 1.163095
H -3.747840 -1.864689 0.256071
H 4.400604 -0.392669 -0.429377
H 1.789867 -2.033427 0.830838