16
Extracted from mol_194.out
B 1.928211 -0.572979 0.333672
C 0.422870 -0.153519 0.122802
C -0.064390 1.098478 0.541338
C -1.400680 1.434106 0.342059
C -2.292970 0.555187 -0.268143
C -1.818401 -0.691172 -0.689359
C -0.478521 -1.039828 -0.499370
F -1.840147 2.636937 0.747584
O 2.373126 -1.705525 -0.278551
O 2.813867 0.132614 1.102098
H 0.577137 1.845917 1.018949
H -3.333949 0.856139 -0.405042
H -2.505092 -1.392432 -1.171166
H -0.115510 -2.013563 -0.835689
H 3.301058 -1.885797 -0.076123
H 2.433389 0.895437 1.552086