29
Extracted from mol_347.out
B -3.334557 0.378695 0.408062
C -1.804942 0.241141 0.106683
C -1.164686 1.342064 -0.505954
C 0.188702 1.372067 -0.835667
C 0.955887 0.225456 -0.532637
C 0.353760 -0.883543 0.077042
C -1.013079 -0.897552 0.400279
C -1.574655 -2.140366 1.055230
O 2.268893 0.294236 -0.885190
C 3.166656 -0.776041 -0.623206
C 3.696276 -0.769531 0.805812
C 0.838419 2.561551 -1.493350
O -3.945865 1.560452 0.058530
O -4.028708 -0.649975 0.999023
H -1.768486 2.224024 -0.736527
H 0.949183 -1.766118 0.314809
H -0.791335 -2.900732 1.195985
H -2.383937 -2.583484 0.454382
H -2.019038 -1.914932 2.037084
H 2.697980 -1.744158 -0.874704
H 3.995883 -0.625818 -1.332440
H 4.177263 0.195154 1.031629
H 4.445596 -1.567748 0.935540
H 2.893589 -0.931038 1.541435
H 1.282325 2.290126 -2.466200
H 0.108391 3.367897 -1.658200
H 1.664283 2.959608 -0.879815
H -4.887788 1.614810 0.255688
H -4.966009 -0.476243 1.146680