20
Extracted from mol_238.out
B 2.978334 -0.049789 -0.046109
C 1.405148 0.049897 -0.064155
C 0.634985 -1.018732 -0.561848
C -0.758908 -0.955783 -0.593426
C -1.431470 0.182670 -0.119363
C -0.677675 1.261184 0.366954
C 0.713927 1.187107 0.397304
C -2.933081 0.333501 -0.128570
O -3.468259 1.425100 -0.031290
N -3.656154 -0.821539 -0.264077
O 3.551614 -1.252856 -0.330409
O 3.803699 1.005125 0.233477
H 1.145036 -1.909726 -0.936422
H -1.319366 -1.792563 -1.018988
H -1.210434 2.148363 0.715286
H 1.267251 2.043468 0.800054
H -4.663948 -0.738869 -0.193127
H -3.243844 -1.730028 -0.100470
H 4.517063 -1.207593 -0.309700
H 3.346083 1.841063 0.379019