20
Extracted from mol_200.out
B 2.839322 0.004972 0.887635
C 1.379908 -0.046409 0.315019
C 0.332747 0.619085 0.977233
C -0.981889 0.601686 0.502832
C -1.285191 -0.100956 -0.675234
C -0.257327 -0.776911 -1.358480
C 1.041639 -0.743141 -0.865013
O -2.521681 -0.184225 -1.224315
C -3.604263 0.468869 -0.598798
O 3.917342 -0.603928 0.297244
O 3.063091 0.696037 2.044068
H 0.555877 1.169463 1.895042
H -1.757879 1.134569 1.053689
H -0.510939 -1.318663 -2.272355
H 1.811925 -1.283655 -1.428133
H -3.782277 0.085518 0.422414
H -4.490808 0.264446 -1.214624
H -3.450464 1.562060 -0.545285
H 3.707611 -1.074518 -0.517214
H 3.993256 0.664490 2.304274