22
Extracted from mol_268.out
B -2.491823 -0.637907 -0.282843
C -0.926384 -0.641357 -0.051739
C -0.151825 0.546998 -0.111150
C 1.234410 0.503648 0.062810
C 1.870078 -0.726742 0.306480
C 1.123909 -1.906951 0.384792
C -0.263408 -1.848901 0.211816
C 3.343371 -0.762121 0.486718
O 4.067502 0.206678 0.442177
O -0.847945 1.691493 -0.317954
C -0.155609 2.916132 -0.433258
O -3.346552 -1.202543 0.627756
O -3.012149 -0.144696 -1.434980
H 1.861068 1.394760 0.021439
H 1.624531 -2.860527 0.576057
H -0.846094 -2.774386 0.265656
H 3.761976 -1.785902 0.674771
H -0.914775 3.685980 -0.626170
H 0.387043 3.170101 0.495306
H 0.563133 2.901503 -1.271893
H -2.904848 -1.496735 1.433200
H -3.975610 -0.228524 -1.458991