16
Extracted from mol_269.out
B -2.088627 -0.002621 0.173727
C -0.516482 -0.012061 0.030357
C 0.121923 -1.122162 -0.547255
C 1.509914 -1.165521 -0.686202
C 2.310190 -0.089433 -0.252280
C 1.673757 1.026773 0.323161
C 0.284166 1.057592 0.459178
Cl 2.606663 2.390450 0.874619
Cl 4.031692 -0.136929 -0.423364
Cl 2.243525 -2.570718 -1.406447
O -2.788649 0.966518 0.835368
O -2.781416 -1.026510 -0.394469
H -0.469939 -1.969603 -0.896026
H -0.151673 1.954566 0.907206
H -2.250873 1.648895 1.252492
H -3.734170 -0.949237 -0.250064