16
Extracted from mol_387.out
B -2.050972 0.224118 -0.102402
C -0.474978 0.071904 -0.025922
C 0.342853 1.214527 -0.114924
C 1.731983 1.103295 -0.049589
C 2.350687 -0.140798 0.106704
C 1.555314 -1.285743 0.196645
C 0.163348 -1.162380 0.128749
F -0.578859 -2.287774 0.215331
Cl 2.279867 -2.854373 0.390456
Br 2.816093 2.666798 -0.176390
O -2.537400 1.485937 -0.254553
O -2.920068 -0.819428 -0.024515
H -0.128435 2.190711 -0.236688
H 3.435818 -0.232867 0.158380
H -3.503291 1.500258 -0.292590
H -2.481963 -1.674186 0.081306