23
Extracted from mol_376.out
B -3.357874 0.442335 -0.389966
C -1.904768 -0.112960 -0.125807
C -0.764980 0.565494 -0.573859
C 0.529564 0.067377 -0.343898
C 0.686607 -1.140358 0.353906
C -0.456938 -1.813916 0.800371
C -1.740424 -1.324487 0.578193
Br -0.227772 -3.457791 1.752254
O 1.549315 0.811219 -0.841553
C 2.907087 0.433499 -0.638708
C 3.440093 0.848008 0.727028
O -3.626336 1.491759 -1.225617
O -4.402965 -0.158514 0.243194
H -0.830848 1.514755 -1.114586
H 1.669779 -1.561540 0.557090
H -2.613602 -1.866289 0.942943
H 3.034935 -0.650165 -0.811891
H 3.461753 0.953353 -1.435110
H 3.320295 1.933112 0.871576
H 2.916990 0.334614 1.548408
H 4.512697 0.605619 0.802273
H -2.852588 1.843419 -1.680799
H -5.250019 0.241456 0.004556