17
Extracted from mol_68.out
B -2.416142 -0.231549 -0.186100
C -0.838339 -0.089874 -0.062191
C -0.214034 1.161533 -0.209793
C 1.166589 1.280975 -0.095377
C 1.982458 0.164161 0.157123
C 1.362474 -1.092878 0.299217
C -0.021687 -1.209765 0.196520
C 3.404085 0.312110 0.264773
N 4.557158 0.412376 0.354125
F 1.735209 2.479164 -0.227742
O -3.116494 -1.113717 0.576815
O -3.138570 0.520430 -1.059550
H -0.789341 2.072049 -0.398965
H 1.985168 -1.969526 0.489029
H -0.474062 -2.200042 0.303133
H -2.584722 -1.553766 1.249442
H -2.599749 1.058317 -1.650458