24
Extracted from mol_124.out
B -2.806363 0.556497 0.402040
C -1.463419 -0.281619 0.213710
C -0.266394 0.332703 -0.192656
C 0.923669 -0.413556 -0.381148
C 0.906001 -1.795134 -0.154388
C -0.281801 -2.422777 0.241216
C -1.443944 -1.678071 0.416374
O 2.014861 0.286117 -0.787480
C 3.218863 -0.402240 -1.047546
O -0.260584 1.683665 -0.476262
C 0.440789 2.531349 0.432424
O -3.881537 0.039129 1.068941
O -2.937842 1.810511 -0.095039
H 1.808627 -2.390488 -0.295584
H -0.288599 -3.503916 0.402522
H -2.363376 -2.198555 0.703432
H 3.094818 -1.155669 -1.846242
H 3.611492 -0.902897 -0.143696
H 3.944355 0.352556 -1.380088
H 0.009460 2.462418 1.446760
H 0.323191 3.558652 0.059871
H 1.510797 2.277184 0.465099
H -3.711290 -0.823105 1.462443
H -2.101772 2.077248 -0.514701