20
Extracted from mol_63.out
B -3.008062 -0.539044 -0.115528
C -1.488419 -0.076884 -0.023545
C -1.014104 1.251562 0.023389
C 0.333097 1.581392 0.114647
C 1.297338 0.560419 0.183212
C 0.878705 -0.778742 0.157378
C -0.485022 -1.062370 0.054123
O 2.582947 0.966749 0.275187
C 3.612533 0.002781 0.355236
Cl -2.142620 2.612384 -0.044223
O -4.053977 0.189320 0.349902
O -3.324331 -1.758689 -0.646094
H 0.660166 2.621272 0.138530
H 1.595002 -1.597908 0.220589
H -0.782908 -2.116011 0.052864
H 3.642304 -0.639856 -0.543023
H 4.555945 0.560523 0.425900
H 3.505772 -0.636795 1.249714
H -3.787673 1.062809 0.665469
H -2.576692 -2.202913 -1.059364