29
Extracted from mol_353.out
B 1.887895 -1.216167 -1.764377
C 2.135860 -0.105320 -0.670779
C 3.391968 0.518572 -0.582667
C 3.668004 1.506826 0.366659
C 2.666490 1.890568 1.259699
C 1.400546 1.296522 1.208273
C 1.140960 0.306919 0.249641
O -0.078549 -0.316109 0.148531
C -1.191669 0.124891 0.915014
C -2.442784 -0.628835 0.461556
C -2.755889 -0.377598 -1.019173
C -3.626340 -0.258765 1.364329
O 2.891184 -1.468114 -2.657546
O 0.731738 -1.934740 -1.851474
H 4.167191 0.211147 -1.289235
H 4.655291 1.973421 0.409322
H 2.863107 2.660887 2.010884
H 0.633632 1.607316 1.917731
H -1.001892 -0.056312 1.989451
H -1.331485 1.214009 0.775548
H -2.232649 -1.706679 0.595984
H -2.982022 0.688265 -1.197360
H -3.632249 -0.963311 -1.339946
H -1.909678 -0.652678 -1.666268
H -3.872126 0.814113 1.280208
H -3.416207 -0.473785 2.425056
H -4.526636 -0.826126 1.080661
H 2.643188 -2.170209 -3.273605
H 0.123120 -1.658703 -1.146117