26
Extracted from mol_64.out
B 3.758993 0.879199 0.400835
C 2.503037 -0.039581 0.108551
C 1.202353 0.432996 0.330947
C 0.071863 -0.366601 0.084456
C 0.245464 -1.670845 -0.405908
C 1.540728 -2.150972 -0.636958
C 2.655961 -1.354790 -0.381073
O -1.131373 0.200557 0.350579
C -2.328348 -0.531347 0.129984
C -3.511258 0.356325 0.490785
C -3.635019 1.607526 -0.379708
O 3.712990 2.234965 0.261393
O 4.952951 0.359732 0.807417
H 1.022859 1.438225 0.724767
H -0.610785 -2.314406 -0.609307
H 1.669324 -3.165082 -1.026002
H 3.655446 -1.752517 -0.583779
H -2.388319 -0.845508 -0.930691
H -2.329118 -1.448035 0.750057
H -4.424387 -0.259234 0.409171
H -3.420463 0.639926 1.553774
H -2.729699 2.228930 -0.303541
H -4.496470 2.221861 -0.073284
H -3.772909 1.343924 -1.442296
H 2.879334 2.542445 -0.112269
H 4.906849 -0.587693 0.978706