33
Extracted from mol_336.out
B 4.120894 0.309448 -0.991457
C 3.065004 0.385358 0.186074
C 1.799675 -0.221154 0.068855
C 0.860404 -0.187908 1.110282
C 1.196892 0.462571 2.307693
C 2.432441 1.098232 2.438733
C 3.356437 1.054111 1.390493
C -0.439549 -0.958423 1.062238
O -0.737662 -1.679193 2.004941
N -1.226503 -0.854060 -0.064443
C -2.395049 -1.729878 -0.184356
C -3.707376 -0.940300 -0.129038
C -3.713625 0.185501 -1.170614
C -2.467467 1.066075 -1.020072
C -1.176995 0.231630 -1.042454
O 3.741888 0.255832 -2.301094
O 5.464146 0.293007 -0.759805
H 1.549183 -0.769006 -0.845768
H 0.482457 0.452947 3.133992
H 2.680466 1.621112 3.366410
H 4.321486 1.557626 1.512882
H -2.325883 -2.265483 -1.151148
H -2.337372 -2.467379 0.625013
H -4.554859 -1.627894 -0.289799
H -3.825978 -0.516186 0.883699
H -3.728424 -0.255538 -2.185297
H -4.628623 0.794765 -1.083065
H -2.420399 1.822666 -1.821784
H -2.515590 1.615114 -0.062615
H -1.034785 -0.198809 -2.053709
H -0.312887 0.872983 -0.834155
H 2.792474 0.365383 -2.422740
H 5.685175 0.226851 0.175986