23
Extracted from mol_116.out
B -2.782245 -0.416155 -0.501253
C -1.210263 -0.374526 -0.427569
C -0.438438 0.425739 0.451729
C 0.964877 0.367255 0.415346
C 1.632328 -0.476923 -0.484692
C 0.880535 -1.275208 -1.361605
C -0.505572 -1.214257 -1.321271
O 2.980892 -0.585322 -0.576033
C 3.801690 0.182304 0.274994
C -1.072020 1.367004 1.457699
O -3.351610 -1.275657 -1.400314
O -3.645008 0.335736 0.256522
H 1.532151 0.994228 1.104737
H 1.408590 -1.929603 -2.058650
H -1.082661 -1.839495 -2.006567
H 3.655114 1.267182 0.121383
H 3.624471 -0.051453 1.340783
H 4.840059 -0.074243 0.023531
H -1.726205 0.829154 2.166604
H -1.670544 2.153112 0.963042
H -0.311168 1.884750 2.060020
H -4.316118 -1.225256 -1.371405
H -3.208855 0.931635 0.872968