27
Extracted from mol_249.out
B 3.909400 0.489701 -0.886656
C 2.423713 0.173942 -0.347950
C 2.000369 -0.414535 0.863055
C 0.663092 -0.670768 1.165254
C -0.336373 -0.292115 0.264721
C 0.031852 0.315470 -0.943010
C 1.380575 0.522288 -1.233844
C -1.761647 -0.561485 0.643984
O -2.090657 -1.076539 1.686878
O -2.620578 -0.169035 -0.310538
C -4.028697 -0.374411 -0.068840
C -4.637499 0.774326 0.717604
N 2.960881 -0.813089 1.920476
O 3.967889 -0.129573 2.080619
O 2.680891 -1.779780 2.600686
O 4.168301 0.285534 -2.211846
O 4.895233 1.028374 -0.146513
H 0.390631 -1.157848 2.101537
H -0.740859 0.618644 -1.650773
H 1.639102 0.990157 -2.187921
H -4.160117 -1.329883 0.460210
H -4.471396 -0.453594 -1.072327
H -4.467048 1.736191 0.208896
H -4.210907 0.826214 1.730428
H -5.725040 0.623754 0.812721
H 3.459821 -0.157964 -2.690257
H 4.679068 0.996022 0.800141