23
Extracted from mol_99.out
B 3.778196 0.036448 0.046392
C 2.204311 -0.023910 0.138529
C 1.543945 -0.489423 1.297475
C 0.157966 -0.546318 1.385787
C -0.637315 -0.123321 0.303790
C -0.011708 0.349345 -0.861848
C 1.385147 0.386900 -0.927241
O -1.977135 -0.208024 0.477733
C -2.856369 0.193709 -0.563586
C -4.280051 -0.009604 -0.081188
O 4.565783 0.208795 1.148805
O 4.443318 -0.078845 -1.141129
H 2.131536 -0.836785 2.154545
H -0.343701 -0.917610 2.282311
H -0.597726 0.691066 -1.715488
H 1.842893 0.771192 -1.845750
H -2.660468 -0.404920 -1.473595
H -2.676563 1.255023 -0.820589
H -4.459471 -1.067057 0.167354
H -4.993870 0.290804 -0.864206
H -4.475620 0.593454 0.818965
H 4.056642 0.390870 1.946401
H 3.860256 -0.307229 -1.873468