22
Extracted from mol_255.out
B -2.593005 1.168459 -0.509883
C -1.463811 0.150304 -0.101321
C -0.138477 0.363822 -0.525840
C 0.906531 -0.511906 -0.196350
C 0.604066 -1.638817 0.585863
C -0.701600 -1.878426 1.023090
C -1.723402 -0.989997 0.681759
C 2.327817 -0.228882 -0.636718
C 3.114454 0.629276 0.367022
O -2.250897 2.249887 -1.267586
O -3.907953 1.035484 -0.148968
H 0.076219 1.244040 -1.139282
H 1.401068 -2.340868 0.851528
H -0.920981 -2.762840 1.627821
H -2.738822 -1.203495 1.036180
H 2.859340 -1.183273 -0.793803
H 2.310391 0.281395 -1.614768
H 4.142007 0.813147 0.012337
H 2.628109 1.606382 0.520129
H 3.178111 0.134313 1.349937
H -3.015522 2.808198 -1.461995
H -4.093645 0.253795 0.383537