29
Extracted from mol_326.out
B -3.053864 0.369668 0.040195
C -1.525599 -0.009740 -0.071591
C -1.115111 -1.368441 0.025511
C 0.236936 -1.697254 -0.054678
C 1.216141 -0.707047 -0.242795
C 0.822161 0.630981 -0.345947
C -0.538175 0.980540 -0.263344
C -0.907619 2.438570 -0.452283
O 2.497520 -1.154931 -0.321220
C 3.580721 -0.254778 -0.508861
C 4.044802 0.395588 0.789147
C -2.133776 -2.469867 0.226978
O -3.933158 -0.047370 -0.915593
O -3.569268 1.114046 1.075983
H 0.569525 -2.735133 0.023411
H 1.558179 1.422549 -0.495095
H -0.147007 3.109313 -0.021782
H -0.984045 2.685014 -1.526398
H -1.877557 2.686035 0.002206
H 4.389738 -0.872497 -0.929653
H 3.325176 0.504278 -1.270059
H 4.936308 1.017174 0.604230
H 3.265608 1.037273 1.228240
H 4.308907 -0.375294 1.530020
H -1.653540 -3.458515 0.268892
H -2.876022 -2.478047 -0.586577
H -2.694915 -2.332157 1.168024
H -4.837272 0.235188 -0.716576
H -2.904796 1.334853 1.739615