23
Extracted from mol_244.out
B 3.734574 -0.212681 -0.258326
C 2.179881 -0.127287 -0.001160
C 1.287612 -0.603042 -0.974527
C -0.095907 -0.544324 -0.784598
C -0.657524 -0.005076 0.390475
C 0.247643 0.453918 1.366220
C 1.624401 0.403405 1.176892
C -2.122813 0.130077 0.787538
O -2.415796 0.229784 1.971378
N -3.045546 0.201362 -0.208643
C -4.463141 0.335263 0.055661
Cl -1.070486 -1.223125 -2.094082
O 4.677246 0.102144 0.680057
O 4.157865 -0.627281 -1.484008
H 1.676644 -1.032765 -1.899121
H -0.184031 0.846642 2.288494
H 2.269216 0.791239 1.973111
H -2.740528 0.066583 -1.164788
H -5.021875 -0.562608 -0.262571
H -4.883433 1.209386 -0.469871
H -4.597497 0.469671 1.136503
H 4.321440 0.358197 1.538600
H 5.122055 -0.659480 -1.545951