38
Extracted from mol_201.out
B 5.186870 -0.038737 -0.223492
C 3.609150 -0.026877 -0.180742
C 2.889064 -0.670342 0.845782
C 1.496368 -0.665085 0.894129
C 0.750197 -0.005557 -0.103209
C 1.450964 0.643130 -1.139749
C 2.844188 0.627615 -1.166916
N -0.662967 0.005399 -0.064693
C -1.384225 1.161789 -0.474238
C -2.518641 1.040899 -1.297046
C -3.233832 2.175936 -1.684400
C -2.824210 3.448929 -1.274203
C -1.692314 3.574307 -0.461547
C -0.981487 2.443311 -0.055738
C -1.379188 -1.140882 0.380385
C -2.468515 -1.004075 1.259872
C -3.180053 -2.128680 1.682434
C -2.810776 -3.407169 1.251311
C -1.723625 -3.548438 0.382254
C -1.017386 -2.427665 -0.058650
O 5.883290 0.032679 -1.396067
O 5.944695 -0.121419 0.909599
H 3.429831 -1.201165 1.637299
H 0.975628 -1.172169 1.708596
H 0.894577 1.158355 -1.924984
H 3.348774 1.150912 -1.986851
H -2.836798 0.050919 -1.630385
H -4.113511 2.063116 -2.324056
H -3.382686 4.335669 -1.584147
H -1.364924 4.562380 -0.126461
H -0.107435 2.546879 0.590651
H -2.754043 -0.009659 1.609153
H -4.024344 -2.003650 2.366008
H -3.366012 -4.285873 1.588753
H -1.428555 -4.540898 0.030526
H -0.179007 -2.543662 -0.748669
H 5.312852 -0.014242 -2.171357
H 5.418083 -0.065978 1.714769