16
Extracted from mol_36.out
B -2.066207 0.218441 0.125149
C -0.501374 0.069175 0.018815
C 0.299105 1.198214 -0.241863
C 1.689926 1.108022 -0.338165
C 2.305210 -0.137855 -0.176037
C 1.545027 -1.283427 0.078541
C 0.155563 -1.165228 0.173026
I 4.422402 -0.294069 -0.320680
O -2.903680 -0.786587 0.527732
O -2.620253 1.420598 -0.197879
H -0.182437 2.170860 -0.371766
H 2.287038 1.999825 -0.538560
H 2.026034 -2.255800 0.200150
H -0.418208 -2.079383 0.365298
H -2.457394 -1.601145 0.785182
H -3.580753 1.418362 -0.088942