17
Extracted from mol_161.out
B 2.007183 0.006009 -0.267038
C 0.456608 -0.105510 -0.017790
C -0.130849 -1.314147 0.410590
C -1.505905 -1.442939 0.604041
C -2.331892 -0.333838 0.377852
C -1.788176 0.882537 -0.031035
C -0.404051 0.998550 -0.229099
O 0.060771 2.217441 -0.620894
O 2.932099 -0.629696 0.501126
O 2.515702 0.803263 -1.268645
H 0.512115 -2.185804 0.575629
H -1.933620 -2.395929 0.924321
H -3.412221 -0.416113 0.526738
H -2.415190 1.760905 -0.199182
H 1.030086 2.218649 -0.600022
H 2.542837 -1.072675 1.264512
H 1.864506 1.009297 -1.951104