16
Extracted from mol_265.out
B 2.004367 -0.338567 -0.024868
C 0.442266 -0.055279 0.005753
C -0.235240 1.024563 0.603446
C -1.623946 1.172134 0.568147
C -2.373511 0.201738 -0.091813
C -1.770339 -0.892958 -0.705746
C -0.382760 -1.001656 -0.646569
F -3.703748 0.333237 -0.131141
Br 0.698846 2.429403 1.544855
O 2.973819 0.432584 0.534241
O 2.390911 -1.472369 -0.681625
H -2.127688 2.017061 1.038576
H -2.387263 -1.635845 -1.215132
H 0.104911 -1.854531 -1.122846
H 2.638432 1.221924 0.985100
H 3.350943 -1.581440 -0.660377