18
Extracted from mol_26.out
B 2.524517 0.011439 -0.155594
C 0.947372 -0.004206 -0.049285
C 0.325064 0.248964 1.189721
C -1.063608 0.250807 1.320493
C -1.840232 -0.012072 0.190845
C -1.269432 -0.275707 -1.054655
C 0.121555 -0.267483 -1.159544
N -3.315993 -0.013911 0.316535
O -3.967009 -0.246131 -0.689524
O -3.788195 0.217440 1.417551
O 3.205427 0.019413 -1.340191
O 3.238468 0.024346 1.001833
H 0.948192 0.447439 2.064779
H -1.556444 0.448461 2.272453
H -1.916487 -0.481329 -1.907225
H 0.563495 -0.485536 -2.137716
H 2.650841 0.068391 -2.127039
H 4.192468 0.049676 0.846564