19
Extracted from mol_328.out
B 2.352741 -0.850147 -0.213954
C 0.979779 -0.065469 -0.104497
C -0.224751 -0.774300 0.067478
C -1.448798 -0.112680 0.165924
C -1.504820 1.286379 0.094627
C -0.328894 2.013621 -0.074609
C 0.889287 1.326754 -0.170776
F 2.011729 2.056016 -0.333764
Cl -0.354549 3.748639 -0.167751
C -2.739414 -0.874560 0.352694
F -3.608267 -0.618552 -0.643772
F -3.353575 -0.525320 1.499061
F -2.544345 -2.200955 0.387396
O 2.285924 -2.206304 -0.129551
O 3.561958 -0.251259 -0.384041
H -0.185923 -1.862702 0.123061
H -2.454883 1.818317 0.169132
H 3.156694 -2.619691 -0.204155
H 3.510109 0.712216 -0.432500