28
Extracted from mol_323.out
B 4.559887 0.573477 0.345735
C 3.065757 0.074542 0.172358
C 2.687802 -1.242134 0.508042
C 1.377684 -1.687509 0.347481
C 0.379757 -0.814271 -0.120698
C 0.739356 0.500736 -0.462128
C 2.062903 0.926691 -0.326955
C -1.004143 -1.373839 -0.322129
O -1.141710 -2.561277 -0.564379
C -2.211345 -0.482127 -0.228207
C -3.368767 -0.875600 -0.924958
C -4.538199 -0.121711 -0.839359
C -4.576168 1.023294 -0.033675
C -3.440385 1.408614 0.684567
C -2.261137 0.664498 0.584388
O 5.120419 1.484423 -0.498905
O 5.359187 0.117614 1.351021
H 3.440979 -1.944075 0.881859
H 1.100893 -2.718895 0.576682
H -0.010724 1.188191 -0.858390
H 2.313512 1.955828 -0.605620
H -3.327180 -1.784436 -1.529016
H -5.427423 -0.428962 -1.396168
H -5.495043 1.611393 0.039535
H -3.472786 2.290871 1.329297
H -1.385342 0.963618 1.163703
H 4.555820 1.704748 -1.248269
H 4.896396 -0.453700 1.974190