17
Extracted from mol_415.out
B -1.934422 -0.325593 0.420564
C -0.374540 -0.180574 0.132783
C 0.243896 0.954606 -0.453128
C 1.633350 0.998133 -0.672796
C 2.434870 -0.082929 -0.315053
C 1.836241 -1.207044 0.263810
C 0.457565 -1.257027 0.484083
Br 2.921436 -2.690582 0.758365
C -0.542868 2.093986 -0.837349
N -1.208046 2.999575 -1.137447
O -2.322049 -1.501963 0.989077
O -2.883900 0.606405 0.151937
H 2.082967 1.884376 -1.125761
H 3.512661 -0.053814 -0.483375
H 0.008731 -2.142486 0.936117
H -3.276738 -1.530666 1.139027
H -2.589154 1.435597 -0.250852