16
Extracted from mol_379.out
B 2.101123 0.125848 0.143475
C 0.506415 0.000036 0.041548
C -0.177172 -1.198073 0.302615
C -1.567957 -1.304185 0.214392
C -2.314154 -0.183510 -0.145733
C -1.677212 1.032297 -0.415443
C -0.277310 1.112927 -0.319835
Cl 0.530901 2.627726 -0.654841
Cl -2.636664 2.412431 -0.861674
Br 0.819078 -2.756764 0.800413
O 2.906409 -0.129776 -0.919287
O 2.714861 0.488822 1.298950
H -2.065213 -2.252305 0.424798
H -3.401495 -0.241525 -0.221177
H 2.431213 -0.391385 -1.715463
H 2.107175 0.657435 2.027262