16
Extracted from mol_141.out
B 2.034525 -0.030923 -0.014080
C 0.445940 -0.060730 -0.022590
C -0.330624 1.043967 0.363831
C -1.720304 1.077026 0.377541
C -2.408966 -0.071213 -0.021555
C -1.706601 -1.209198 -0.419296
C -0.311101 -1.182625 -0.412394
F 0.316414 -2.294605 -0.800071
F 0.306979 2.178578 0.758033
O 2.723906 -1.133668 -0.406655
O 2.742134 1.067841 0.375460
H -2.234085 1.985608 0.695134
H -3.501668 -0.077445 -0.021846
H -2.214739 -2.121493 -0.736333
H 3.677460 -0.980106 -0.352638
H 2.180729 1.808985 0.637462