30
Extracted from mol_350.out
B 4.686639 -0.178244 -0.095033
C 3.133294 -0.123672 -0.351032
C 2.509984 -1.094564 -1.161158
C 1.140969 -1.054498 -1.418762
C 0.334106 -0.060611 -0.839737
C 0.938683 0.914520 -0.031767
C 2.316222 0.881852 0.197107
C -1.127845 -0.042496 -1.212737
O -1.477288 -0.328125 -2.351824
N -2.049401 0.300467 -0.257749
C -3.471974 0.295683 -0.636138
C -4.209319 0.520537 0.690085
C -3.258360 -0.093103 1.727519
C -1.876568 0.318543 1.202066
O 5.358095 -1.318384 -0.419322
O 5.404694 0.862313 0.432005
H 3.120743 -1.886520 -1.602084
H 0.672231 -1.788012 -2.078446
H 0.340145 1.719175 0.400156
H 2.752106 1.663117 0.830794
H -3.677940 1.069331 -1.392658
H -3.729221 -0.672719 -1.100232
H -5.212114 0.067654 0.693784
H -4.333068 1.599895 0.883520
H -3.349493 -1.192657 1.723684
H -3.440164 0.255748 2.755538
H -1.071245 -0.360292 1.517575
H -1.618341 1.331290 1.565120
H 6.306229 -1.241757 -0.246887
H 4.888201 1.663347 0.576611