23
Extracted from mol_391.out
B -1.722835 -1.385986 0.340771
C -1.234005 0.112159 0.169223
C -1.958998 1.226171 0.613353
C -1.529889 2.536818 0.391891
C -0.336602 2.749542 -0.302119
C 0.403563 1.659036 -0.746799
C -0.023438 0.342486 -0.511374
O 0.680947 -0.716968 -1.013787
C 1.711414 -1.299968 -0.196822
C 3.040674 -0.564496 -0.274412
F 1.546363 1.871226 -1.415848
Br -3.602789 0.959105 1.567978
O -1.165331 -2.123764 1.346735
O -2.647876 -1.850687 -0.542828
H -2.119281 3.381909 0.750479
H 0.030625 3.757748 -0.506334
H 1.823524 -2.325060 -0.584444
H 1.352561 -1.376892 0.843804
H 2.979104 0.447960 0.151212
H 3.803900 -1.125319 0.290710
H 3.376095 -0.474707 -1.319003
H -1.485087 -3.031603 1.425919
H -2.922640 -2.768712 -0.426597