38
Extracted from mol_366.out
B -6.599567 0.309077 0.134462
C -5.048626 0.020345 0.111858
C -4.440421 -0.854793 1.039276
C -3.074232 -1.110974 1.027382
C -2.248865 -0.499462 0.064603
C -2.823632 0.370817 -0.876586
C -4.199690 0.618518 -0.835418
O -0.931698 -0.807202 0.122526
C -0.022199 -0.228415 -0.804435
C 1.380112 -0.727250 -0.486971
C 1.893675 -0.297454 0.891947
C 3.268034 -0.872423 1.269541
C 4.453633 -0.455405 0.384374
C 4.772318 1.044652 0.388929
C 6.011346 1.402882 -0.434324
O -7.125488 1.493519 -0.297084
O -7.504598 -0.608714 0.585735
H -5.051215 -1.339031 1.809303
H -2.611753 -1.781435 1.755301
H -2.214196 0.853457 -1.641049
H -4.619455 1.293963 -1.589342
H -0.066777 0.875790 -0.733475
H -0.309212 -0.508967 -1.835353
H 1.385389 -1.829416 -0.562985
H 2.046554 -0.356748 -1.285109
H 1.158868 -0.616172 1.649345
H 1.916233 0.806658 0.942403
H 3.199549 -1.975683 1.270090
H 3.489294 -0.587141 2.314091
H 5.349148 -1.007178 0.724116
H 4.285978 -0.788200 -0.657020
H 3.906440 1.614437 0.006672
H 4.912914 1.380500 1.433269
H 6.909286 0.887532 -0.052824
H 5.889915 1.109903 -1.491275
H 6.214969 2.485816 -0.411623
H -6.448182 2.147408 -0.502566
H -7.103853 -1.463212 0.780170