32
Extracted from mol_234.out
B 4.705280 0.308083 0.459231
C 3.170699 0.141834 0.160442
C 2.237390 0.111980 1.216265
C 0.870601 -0.031376 0.978704
C 0.367834 -0.157371 -0.329717
C 1.292014 -0.132075 -1.386072
C 2.659870 0.014760 -1.143593
C -1.120737 -0.288542 -0.607303
C -1.824551 -1.425319 0.206201
C -2.767335 -0.895454 1.294226
C -3.881770 -0.006783 0.707474
C -3.373135 0.884302 -0.454605
C -1.851836 1.065670 -0.411634
O 5.117583 0.323925 1.759619
O 5.662363 0.443682 -0.512582
H 2.599739 0.204025 2.243523
H 0.182318 -0.048439 1.828530
H 0.932549 -0.233714 -2.414847
H 3.336592 0.020013 -2.006795
H -1.219102 -0.543756 -1.676029
H -1.069849 -2.095772 0.647181
H -2.410846 -2.049853 -0.490475
H -2.184906 -0.320652 2.034821
H -3.209628 -1.737232 1.852873
H -4.307412 0.618213 1.510783
H -4.709997 -0.641484 0.348337
H -3.875545 1.865364 -0.434995
H -3.641411 0.427318 -1.423968
H -1.518465 1.774088 -1.187726
H -1.555172 1.512141 0.553357
H 6.074413 0.440064 1.831266
H 5.312453 0.452361 -1.410684