23
Extracted from mol_272.out
B -2.113743 -1.665480 -0.669923
C -0.697351 -1.004325 -0.421690
C -0.532152 0.293094 0.121640
C 0.739924 0.841603 0.323140
C 1.873929 0.092699 -0.015645
C 1.746045 -1.188390 -0.556012
C 0.467041 -1.715996 -0.749835
C 3.242825 0.664858 0.264587
F 4.166888 0.201982 -0.593548
F 3.665040 0.348499 1.504950
F 3.252281 2.009529 0.183186
O -1.678175 0.977324 0.432242
C -1.602691 2.280538 0.980127
O -2.132644 -2.921386 -1.204273
O -3.289228 -1.046583 -0.377941
H 0.869459 1.842908 0.730221
H 2.633943 -1.762361 -0.826106
H 0.354972 -2.716650 -1.173806
H -2.637351 2.609762 1.144636
H -1.107391 2.982955 0.287599
H -1.066028 2.284121 1.944670
H -3.036366 -3.243991 -1.320015
H -3.119226 -0.164709 -0.008205