25
Extracted from mol_420.out
B -2.734525 0.564265 -0.180363
C -1.215429 0.167325 -0.057315
C -0.250236 1.169263 -0.278843
C 1.130125 0.956312 -0.191027
C 1.580487 -0.342911 0.129585
C 0.630262 -1.349479 0.349137
C -0.753041 -1.131309 0.272720
C -1.695172 -2.283754 0.538085
C 3.054520 -0.645916 0.236815
C 2.105633 2.082657 -0.430481
O -3.156760 1.600023 -0.977313
O -3.693153 -0.100292 0.528127
H -0.585886 2.186883 -0.514146
H 0.987620 -2.355180 0.594110
H -2.412445 -2.422972 -0.286347
H -2.301331 -2.105312 1.439959
H -1.139779 -3.224198 0.672697
H 3.541581 -0.023941 1.007883
H 3.231128 -1.700470 0.494991
H 3.582925 -0.437737 -0.709883
H 2.741969 2.268018 0.452412
H 2.790928 1.860509 -1.267104
H 1.583482 3.021995 -0.666929
H -2.451000 1.980401 -1.513206
H -4.571904 0.265819 0.356436