19
Extracted from mol_133.out
B -2.745489 -0.152202 -0.643705
C -1.201358 -0.066889 -0.316398
C -0.586170 1.152052 0.028869
C 0.775765 1.228711 0.326699
C 1.591563 0.086324 0.279937
C 0.988904 -1.134721 -0.064772
C -0.375569 -1.207163 -0.351561
C 3.071201 0.172405 0.564654
O -3.480364 -1.273518 -0.388518
O -3.428054 0.890647 -1.199671
H -1.187683 2.065985 0.089146
H 1.215032 2.191816 0.604905
H 1.599674 -2.041935 -0.108224
H -0.802664 -2.178904 -0.623687
H 3.301053 0.982793 1.273768
H 3.459200 -0.769772 0.981961
H 3.640238 0.377727 -0.359734
H -2.982721 -1.944731 0.091667
H -2.852558 1.621373 -1.451866