22
Extracted from mol_290.out
B -0.616668 2.338847 0.444184
C -0.964105 0.787004 0.195815
C -0.070428 -0.306056 0.016699
C -0.551753 -1.599512 -0.254300
C -1.919897 -1.833069 -0.302557
C -2.833237 -0.803727 -0.101519
C -2.340320 0.480845 0.131522
F -2.363076 -3.073365 -0.541375
C 1.416188 -0.159825 0.143021
O 1.993719 0.686198 0.800737
O 2.087744 -1.106020 -0.523694
C 3.514160 -1.084274 -0.409531
O 0.444954 2.795718 1.132219
O -1.488993 3.285095 -0.028663
H 0.136552 -2.428706 -0.414814
H -3.904476 -1.014556 -0.130793
H -3.068170 1.282115 0.288701
H 3.822224 -1.207629 0.639694
H 3.917642 -0.131713 -0.783855
H 3.878249 -1.920955 -1.017990
H 1.090799 2.084920 1.311190
H -2.181105 2.928662 -0.594689