16
Extracted from mol_205.out
B 2.016330 0.218151 0.120419
C 0.454623 0.059560 0.012154
C -0.240925 0.656089 -1.059771
C -1.625221 0.539918 -1.192823
C -2.331616 -0.186879 -0.235240
C -1.690203 -0.794631 0.842705
C -0.304364 -0.663405 0.952395
F -3.661535 -0.304758 -0.352865
O 2.656190 0.956096 -0.831111
O 2.776818 -0.339980 1.113257
H 0.323123 1.223629 -1.804005
H -2.167159 1.000566 -2.021797
H -2.279099 -1.354928 1.572028
H 0.184560 -1.146204 1.806376
H 3.609921 0.992620 -0.678517
H 2.278557 -0.855843 1.756793