29
Extracted from mol_443.out
B -2.642057 -1.826594 0.134300
C -2.484272 -0.255376 0.049409
C -1.230502 0.392460 -0.077518
C -1.142345 1.790022 -0.148628
C -2.305291 2.566187 -0.095593
C -3.538483 1.936561 0.027647
C -3.633131 0.549933 0.099871
F -4.656509 2.682062 0.075759
O -0.124031 -0.420477 -0.128620
C 1.179705 0.136571 -0.245039
C 2.183469 -1.008437 -0.279256
C 3.638971 -0.559385 -0.473923
C 4.227142 0.251336 0.685269
O -1.587825 -2.685939 0.094414
O -3.907959 -2.325858 0.252747
H -0.179814 2.291289 -0.246620
H -2.258422 3.656038 -0.150201
H -4.616479 0.084943 0.196593
H 1.249304 0.737894 -1.171625
H 1.369233 0.812760 0.608047
H 2.090015 -1.588752 0.656229
H 1.895311 -1.686853 -1.100620
H 4.254927 -1.461378 -0.629509
H 3.719685 0.020736 -1.411748
H 3.710361 1.214528 0.828946
H 5.290581 0.478608 0.508208
H 4.160779 -0.304778 1.635875
H -0.758322 -2.186881 0.008595
H -3.904044 -3.291220 0.296990