17
Extracted from mol_54.out
B 2.209683 0.054033 0.183310
C 0.650896 -0.160952 0.001932
C -0.240837 0.879625 -0.264542
C -1.623737 0.696289 -0.426092
C -2.137529 -0.609988 -0.312627
C -1.279604 -1.676384 -0.047031
C 0.090855 -1.449661 0.106661
C -2.480235 1.813149 -0.698756
N -3.189519 2.705407 -0.919027
F 0.230221 2.140763 -0.378214
O 2.828567 1.262671 0.104814
O 2.953589 -1.058157 0.433734
H -3.210799 -0.768107 -0.435903
H -1.682547 -2.687904 0.039981
H 0.763108 -2.285376 0.314618
H 2.225283 1.995190 -0.076380
H 3.892605 -0.850599 0.533713