21
Extracted from mol_42.out
B -2.994570 0.225394 -0.262619
C -1.420100 0.267449 -0.123574
C -0.628013 -0.884641 -0.245239
C 0.757641 -0.818352 -0.114004
C 1.419074 0.398609 0.112096
C 0.628973 1.546492 0.260175
C -0.760648 1.481821 0.145238
C 2.912657 0.569903 0.181199
O 3.468247 1.226638 1.023822
O 3.539616 -0.000660 -0.859212
N 1.499677 -2.096524 -0.134744
O 1.027432 -3.008202 -0.794579
O 2.511258 -2.167101 0.542375
O -3.692510 -0.870214 -0.680705
O -3.682001 1.356217 0.049489
H -1.061111 -1.871132 -0.425165
H 1.127892 2.498010 0.456661
H -1.354416 2.391350 0.262587
H 4.494908 0.131989 -0.727561
H -3.158345 -1.631399 -0.934834
H -4.635663 1.254353 -0.073379