25
Extracted from mol_92.out
B 3.859420 -0.704260 -0.026320
C 2.341188 -0.336199 -0.207292
C 1.476281 -1.207525 -0.898461
C 0.126096 -0.903607 -1.076957
C -0.423162 0.286848 -0.571390
C 0.431276 1.162240 0.118825
C 1.781299 0.853695 0.294284
C -1.894960 0.597135 -0.727888
C -2.760680 0.069243 0.432613
C -4.247253 0.387931 0.267466
O 4.305053 -1.891308 -0.529763
O 4.770122 0.098235 0.609968
H 1.879348 -2.138889 -1.304783
H -0.517274 -1.600004 -1.624426
H 0.032649 2.100096 0.518504
H 2.405336 1.573183 0.838443
H -2.263735 0.164580 -1.674549
H -2.034673 1.689556 -0.809585
H -2.617409 -1.022486 0.518780
H -2.387998 0.496103 1.380718
H -4.838459 -0.001381 1.112018
H -4.421461 1.476063 0.212540
H -4.653669 -0.057193 -0.656658
H 5.249141 -2.018306 -0.366353
H 4.403527 0.926248 0.940009