16
Extracted from mol_138.out
B 1.972190 0.003100 -0.245616
C 0.400333 -0.000435 -0.049530
C -0.261997 0.985967 0.682522
C -1.642237 1.017489 0.876223
C -2.400911 -0.003865 0.299009
C -1.804230 -1.023577 -0.446682
C -0.418689 -0.988682 -0.597157
F 0.164136 -1.965064 -1.314838
Br -4.290837 -0.006175 0.533845
F 0.476675 1.964041 1.235490
O 2.717117 -0.686349 0.661271
O 2.467699 0.695834 -1.307349
H -2.095254 1.818383 1.460303
H -2.384568 -1.825638 -0.902428
H 3.672822 -0.674071 0.524580
H 3.427749 0.689044 -1.409643