18
Extracted from mol_354.out
B 2.539218 0.117629 0.001491
C 0.957764 0.029906 -0.011762
C 0.132387 0.880696 0.740579
C -1.251702 0.815801 0.739415
C -1.871414 -0.157167 -0.060387
C -1.090106 -1.031428 -0.831173
C 0.301827 -0.933867 -0.802235
C -3.355865 -0.252993 -0.083774
O -4.097935 0.460178 0.550000
F 0.715147 1.828554 1.520872
O 3.240800 1.022924 0.736007
O 3.213795 -0.774610 -0.775452
H -1.853159 1.499494 1.341371
H -1.578668 -1.787488 -1.452869
H 0.912617 -1.613481 -1.400936
H -3.757162 -1.059029 -0.752040
H 2.671371 1.609817 1.251798
H 4.171086 -0.654934 -0.710904