19
Extracted from mol_91.out
B 2.408838 0.652176 -0.000126
C 0.994900 -0.036895 -0.013305
C -0.170020 0.750401 0.090874
C -1.459950 0.205758 0.084701
C -1.553616 -1.188083 -0.031495
C -0.438434 -2.013397 -0.136701
C 0.829677 -1.429020 -0.126801
F -2.776685 -1.747776 -0.041324
C -2.706834 1.044002 0.194159
O 3.593187 -0.028036 -0.106498
O 2.466455 2.009451 0.123813
H -0.061071 1.834853 0.180201
H -0.580369 -3.092755 -0.224020
H 1.698912 -2.091282 -0.210142
H -3.356055 0.914486 -0.687887
H -2.455693 2.110737 0.282956
H -3.308402 0.756564 1.072598
H 3.497416 -0.982788 -0.195753
H 3.377744 2.331605 0.119118