22
Coordinates from ORCA-job PM3_Optimized/mol_1_conf1 E -85.413893598844
  C           3.25383392588266     -1.23420605990370     -0.61526015572504
  C           2.23827276817369     -0.36157779731776      0.06583363444497
  O           2.32906710435010      0.20204061793489      1.13349475564062
  O           1.08651682505740     -0.24159033701358     -0.68202201409187
  C           0.04248240237232      0.56131252806835     -0.21196989958938
  C           0.21321673716905      1.95120495119494     -0.25100769261532
  C          -0.84353325023174      2.78418697529179      0.09096377211120
  C          -2.06342808860483      2.23608224392825      0.46982485680233
  C          -2.23042448638690      0.85617893291805      0.50662821242518
  C          -1.18755000636242     -0.01299622979405      0.16414056633194
  B          -1.50868977884397     -1.62953591884798      0.22647732924581
  O          -0.87035008367315     -2.72060695168427     -0.64399136792331
  O          -2.54467878839145     -2.17774666438087      1.19139394633127
  H           2.83354473968479     -2.22035494011477     -0.85428042987202
  H           4.13310222180610     -1.38641813606561      0.02392333997642
  H           3.59253282901476     -0.77752376847636     -1.55467910429772
  H           1.17908723132600      2.38122724811983     -0.53991831382342
  H          -0.71229651968806      3.87106512578421      0.06428056894056
  H          -2.89596263196523      2.89236196898482      0.74475533010884
  H          -3.20215958946756      0.45188810981677      0.81844991870480
  H          -0.24916806802132     -2.30666083991881     -1.22709613453140
  H          -2.59341549320025     -3.11833005852412      1.08005688140553
