25
Coordinates from ORCA-job PM3_Optimized/mol_38_conf1 E -70.480248192119
  C          -2.72956468557786      0.20077377554260      1.10467125231957
  C          -1.83436439890248      0.79849591553381      0.02958880372288
  C          -2.58420106878228      0.93159711419826     -1.28748180511179
  C          -0.58556891678923     -0.02270674406812     -0.14624130481507
  C          -0.64997110987246     -1.35596075489515     -0.55308670660042
  C           0.51589679111628     -2.09657565454155     -0.70957006390542
  C           1.75408374613903     -1.51532200288849     -0.46220661819902
  C           1.83309519955875     -0.18075253822972     -0.05430208996729
  B           3.29233252459431      0.50527707552396      0.23750347147477
  O           3.43466196002016      1.95124030412256      0.67431554289951
  O           4.64758708378874     -0.21368302345933      0.10709010455728
  C           0.65978728437657      0.56060888494987      0.10194706856577
  H          -3.61812321650913      0.82464486197023      1.26777384332437
  H          -3.08021809952798     -0.80452052100872      0.83335035080345
  H          -2.20124860299664      0.11719453387532      2.06276896864149
  H          -1.53692044615823      1.82549171855680      0.36170046216199
  H          -1.95127699848901      1.38049600208971     -2.06331569982692
  H          -3.47142849998346      1.56787833338161     -1.17220132316430
  H          -2.92573208406376     -0.04246998366667     -1.66392766243030
  H          -1.62341166846573     -1.82144686661228     -0.75035809083273
  H           0.45794486817083     -3.14242050886004     -1.02907329967393
  H           2.66228697321068     -2.11788174488555     -0.59182760236394
  H           4.35632901982795      2.14361518221346      0.78784657282988
  H           4.47124994411847     -1.10420384635911     -0.16732814891261
  H           0.70677540119649      1.61062648751655      0.42182197450278
