26
Coordinates from ORCA-job PM3_Optimized/mol_57_conf2 E -82.360429072233
  O          -5.17024394575634      1.10167365499758     -0.02559210820905
  B          -4.27796177094382     -0.12710344297171     -0.06544326766805
  O          -5.11687591252126     -1.39108023872903     -0.13496461189040
  C          -2.62785181605069     -0.08361008150214     -0.03688622436319
  C          -1.88237995529021     -1.26458688625976     -0.06474723886553
  C          -0.49331091905566     -1.22349376722859     -0.03839829224006
  C           0.17333305387565      0.00327298737029      0.01145962643768
  C           1.64125200126650      0.04853950435445      0.03678931840580
  C           2.33234201155283      0.91439498052644     -0.81479296968308
  C           3.72162534716155      0.95266849806351     -0.79033221537186
  C           4.42861873199094      0.13444058720052      0.08463428767196
  C           3.74379436495254     -0.72668094194984      0.93578537059675
  C           2.35478217394511     -0.77393332143948      0.91248769330153
  C          -0.56885565426164      1.18675216722089      0.03708775570596
  C          -1.95764149157933      1.14110187914935      0.01553252358156
  H          -4.59145740506751      1.85349649480901      0.01974730453881
  H          -4.50923940842905     -2.12013285841808     -0.15827593429616
  H          -2.38390375611186     -2.24025405773203     -0.10791583263923
  H           0.08383780307266     -2.15548230563939     -0.05890688888713
  H           1.77645226115923      1.56065798938710     -1.50371909528629
  H           4.25956933850403      1.62946778796469     -1.46231385491013
  H           5.52282182000403      0.16810217840887      0.10336347109408
  H           4.29910275963740     -1.36972856798580      1.62651748633457
  H           1.81645498372198     -1.45391357817676      1.58268639401852
  H          -0.05166852078608      2.15269204237722      0.07655205925046
  H          -2.52259609499101      2.08273929620271      0.04043624337249
