18
Coordinates from ORCA-job PM3_Optimized/mol_17_conf3 E -69.131071485126
  O           2.68134387491990     -2.48845237075377     -0.01346912665626
  C           2.77552516710588     -1.31891805852154      0.28121109062405
  C           1.61822450899954     -0.39136839824002      0.36459643798407
  C           1.86085339906473      0.95898251605409      0.62591684159748
  C           0.79994056067493      1.85116611757623      0.70932937176132
  C          -0.50604232087067      1.40422191855904      0.53083545056097
  C          -0.75991664697448      0.05531685584704      0.27048569328133
  B          -2.29867073512958     -0.47767623380563      0.06448267097591
  O          -3.47639628183511      0.37433985562410     -0.43780042847636
  O          -2.68961426411598     -1.90861202567542      0.36654138791383
  C           0.30832616832126     -0.84278368234994      0.19133137645310
  H           3.76490056261815     -0.88408597132488      0.50441085951726
  H           2.88882430159472      1.31509625778584      0.76580981621222
  H           0.99069787003057      2.90965380173016      0.91646944682643
  H          -1.32659737954608      2.12862119693799      0.60446923104934
  H          -3.14986730096130      1.24347183183406     -0.62520519116185
  H          -3.61321045863567     -2.01880186246122      0.18097076653470
  H           0.13167997473919     -1.91017274881613     -0.00420969499754
