19
Coordinates from ORCA-job PM3_Optimized/mol_60_conf1 E -106.358712610702
  O          -3.68387165347500      1.31494977831772      0.06460506242913
  B          -2.83715747988037      0.05858322104046      0.08654350405833
  O          -3.72104994280311     -1.17182019297561      0.11649091766034
  C          -1.17845954131675      0.03047877255348      0.07813192730977
  C          -0.44858342856381      1.21196921235944      0.22607708834751
  C           0.94291679179351      1.19102133056428      0.21954722839558
  C           1.61140869608477     -0.01953024497040      0.05947964070948
  C           3.13946070757792     -0.07397776854201      0.06363105602515
  F           3.75685729267230      1.10520128237508     -0.17537624369747
  F           3.66494843933233     -0.91607712542895     -0.85624072215010
  F           3.65924878883637     -0.49412502987729      1.24066240310517
  C           0.89588865746293     -1.20617028340521     -0.08574867691287
  C          -0.49450677482309     -1.17809316514850     -0.07625067313658
  H          -3.08820526869246      2.05362089553541      0.04631783048473
  H          -3.14696429868871     -1.92772304105782      0.12735022975375
  H          -0.95947392529710      2.17572529105814      0.35158050739348
  H           1.50248279522573      2.12676495797437      0.33970618470464
  H           1.42718202495963     -2.15803592666498     -0.20733467109269
  H          -1.04212288040508     -2.12276196370762     -0.19250559338735
