16
Coordinates from ORCA-job PM3_Optimized/mol_36_conf2 E -64.024286972527
  O          -2.89216039074791     -1.46177571628105      0.48392556070344
  B          -2.15304877863980     -0.20321356484140      0.06937055745355
  O          -3.13946721798251      0.89242239483150     -0.28913366279353
  C          -0.50757555061047     -0.04795074291111      0.01613912784410
  C           0.28712852625875     -1.13409907391294     -0.36441574864213
  C           1.67406812189553     -1.00660009053161     -0.41336691104060
  C           2.23091352247745      0.21064609504699     -0.07176704783979
  I           4.18957012108644      0.39534957814498     -0.13463853763453
  C           1.47923436806643      1.30432601189253      0.31179713631799
  C           0.09260553513957      1.16987427193700      0.35179334001921
  H          -2.23545907567332     -2.10800650529814      0.70855577751318
  H          -2.63108338122324      1.64870448730040     -0.55166330166637
  H          -0.16675198233554     -2.09585493790790     -0.63274632862344
  H           2.31595955659978     -1.84178548926379     -0.71201514465385
  H           1.97127228325516      2.24658102662115      0.57409201220169
  H          -0.51520765756633      2.03138125517339      0.65407517084108
