20
Coordinates from ORCA-job PM3_Optimized/mol_12_conf1 E -78.475680748183
  O           3.98010640138059      0.23401747222953      0.71233874650844
  B           3.01301047716981     -0.10890609205953     -0.40386437949219
  O           3.72417056168793     -0.50293899289584     -1.70797087050330
  C           1.38800570738837     -0.05046259954023     -0.17845110607586
  C           0.85592278535845     -0.12802096380025      1.11098548682464
  C          -0.52106032462715     -0.07893775599098      1.30713184342902
  C          -1.38809102498465      0.05001570090293      0.21941018054367
  B          -3.01321349071366      0.10820872148980      0.44483638280162
  O          -3.72376593866501      0.50925667348619      1.74720402597216
  O          -3.98030014289632     -0.24163762387161     -0.66891210628344
  C          -0.85607519357916      0.12757656426073     -1.07001093063077
  C           0.52094050280737      0.07849232553830     -1.26613718542421
  H           4.86616710763371      0.14152701254378      0.38696413708204
  H           3.06144356460780     -0.71829408977771     -2.34971500375239
  H           1.51706411138809     -0.22371371836817      1.98140771656490
  H          -0.90819045577343     -0.14701514267724      2.33132735262134
  H          -3.06061632269886      0.72972802126925      2.38675711336368
  H          -4.86630596240921     -0.14845946121576     -0.34353707755968
  H          -1.51715370059292      0.22322933521822     -1.94047578642854
  H           0.90794233751826      0.14633461325859     -2.29038753956112
