18
Coordinates from ORCA-job PM3_Optimized/mol_54_conf1 E -80.866885759206
  O           3.89120263935179      1.26396469603807      0.58153590553290
  N           3.38758998819755      0.18936929036139      0.32086815707955
  O           4.06917579214845     -0.80123077735202      0.14911332103256
  C           1.89580518589897      0.08493724144711      0.20903975278103
  C           1.29703878019226     -1.14213344045412     -0.09320686865028
  C          -0.08730782596801     -1.23497026178668     -0.19619389903353
  C          -0.88976174075159     -0.10877304783244      0.00004032261881
  B          -2.52939070816494     -0.22610104328094     -0.12379470219580
  O          -3.51759944059246      0.93779623153914      0.01225931756127
  O          -3.19870965771910     -1.55528868470736     -0.39323868160861
  C          -0.28564235287204      1.11498096984859      0.30215915381295
  C           1.09609784204909      1.21601922431554      0.40705264540877
  H           1.90945855544484     -2.04164570920818     -0.25162086010877
  H          -0.53849039098458     -2.20759663951101     -0.43343676511715
  H          -3.02140165081957      1.72851304851484      0.17707323775380
  H          -4.13747905052141     -1.42386059901130     -0.42920003912569
  H          -0.89032561715401      2.01728426900357      0.46245265433866
  H           1.54974065226475      2.18873423207582      0.64581134791952
