20
Coordinates from ORCA-job PM3_Optimized/mol_11_conf1 E -78.476166750933
  O          -3.96056327594408     -0.32329963657912      0.23418160599702
  B          -2.60005598578739      0.31922243905273      0.55067898090973
  O          -2.71140802086661      1.52318280326854      1.46703896777464
  C          -1.15330721716245     -0.20332470631581     -0.01672024230469
  C          -1.08593880658758     -1.31371297174957     -0.86415442386865
  C           0.14169569054120     -1.75426663584529     -1.34342062163046
  C           1.31500811976141     -1.09602714709498     -0.98538968129988
  C           1.26133029360456      0.01401300566336     -0.13985996707161
  B           2.63273531874179      0.80243125639584      0.29288054592980
  O           2.67996134873364      2.03054397850231      1.21557913699532
  O           4.00008964385878      0.36821915568475     -0.19802967933916
  C           0.02454916488702      0.45638485412677      0.34168141572559
  H          -3.80212713288788     -1.06090688651375     -0.34028716750963
  H          -3.62555895625358      1.65870031928008      1.68005583287284
  H          -1.99769871731267     -1.84878121727337     -1.15998250576669
  H           0.18760717966723     -2.62464683022860     -2.00695680512678
  H           2.27545176121441     -1.45790482064044     -1.37327577055696
  H           1.78695262084087      2.22716206114660      1.47020464351498
  H           4.65186412490516      0.95200383080144      0.16779193043429
  H          -0.02058715395385      1.33100614831851      1.00798380432030
