30
Coordinates from ORCA-job PM3_Optimized/mol_8_conf2 E -98.631100707157
  O          -3.78266574878548     -2.68065693410997      0.54330258208975
  B          -4.24000466038093     -1.27907644268469      0.18595060954298
  O          -5.77115696863214     -1.13426560380151      0.13929199554188
  C          -3.18515536314503     -0.05819622731272     -0.11475916933153
  C          -3.67115098826258      1.21107766553404     -0.43273984229819
  C          -2.78775411392046      2.25606615967042     -0.69086210856301
  C          -1.41752389335471      2.05096703953663     -0.63493668460904
  C          -0.92831774434075      0.77315822710376     -0.31465118569333
  O           0.44689129019571      0.70012769286312     -0.29667676631280
  C           1.02527800135623     -0.55503972501526      0.05637852380045
  C           2.51239094362380     -0.35074854796437      0.03067527658829
  C           3.18372206633829      0.04801199172300      1.18671984124693
  C           4.56301688595158      0.22300148812368      1.16411386709323
  C           5.27540171695699      0.00251746875452     -0.01008490074771
  C           4.60742486788301     -0.39291144198834     -1.16434577524735
  C           3.22825057976555     -0.56931745055052     -1.14658578740308
  C          -1.80783019731886     -0.28427062284988     -0.05439574722597
  H          -4.54901964838644     -3.22378823003247      0.67404555134122
  H          -5.95800550268951     -0.23169176359917     -0.08721027527422
  H          -4.75193260488490      1.39808544727226     -0.48292632363677
  H          -3.17746471991068      3.24881808537794     -0.94015263907438
  H          -0.72441116820694      2.87575200958675     -0.83860211687281
  H           0.68201688261661     -0.86798542763737      1.06228393093199
  H           0.71643038951349     -1.33500648057567     -0.66735974452255
  H           2.62327676055720      0.22547164125653      2.11165450300601
  H           5.08813594152941      0.53615181343960      2.07239522675122
  H           6.36138981076648      0.14090609773068     -0.02591735009014
  H           5.16741787830787     -0.56462327689447     -2.08939320578919
  H           2.70273215346324     -0.87754901815847     -2.05758281426393
  H          -1.43137984660600     -1.28498563479804      0.19524752902205
