23
Coordinates from ORCA-job PM3_Optimized/mol_6_conf2 E -81.170925462927
  C           4.49355252893611     -0.20022219998523      0.01481334134384
  C           3.09221243355938      0.34269186732428     -0.12400514059141
  O           2.82689298255237      1.53259795622120     -0.12223556421197
  N           2.06614089049016     -0.63734228627571     -0.33080776251884
  C           0.66039150163057     -0.35100052712214     -0.19492932861319
  C          -0.14034312801042     -1.21276388020513      0.56732570648448
  C          -1.51103725789801     -1.00161064424550      0.64771974463753
  C          -2.10317131965688      0.07027501471411     -0.02582758207836
  B          -3.71750124895844      0.32383423834096      0.07366912957339
  O          -4.47350840391737      1.48743876549768     -0.59221653577935
  O          -4.63210998228257     -0.60051665600057      0.85641454399820
  C          -1.29924954544792      0.92367681027472     -0.78663624665617
  C           0.07185082319298      0.71809621655689     -0.88006124712266
  H           4.75680677307983     -0.85417391869895     -0.82757205492940
  H           4.60282128176192     -0.78237135758435      0.93984440810632
  H           5.23510023950936      0.60943390873250      0.04712722296802
  H           2.30865134899787     -1.53421304466243      0.03316181523264
  H           0.29884291462293     -2.06280025843268      1.10438325328006
  H          -2.12146310077047     -1.68691179442892      1.24901238714953
  H          -3.83436968248733      2.01547398630011     -1.05260236025144
  H          -5.52053320525342     -0.27604852003526      0.78746153829881
  H          -1.74038408915939      1.77213797759345     -1.32630708982073
  H           0.68040524550872      1.40431634612097     -1.48192817849930
