17
Coordinates from ORCA-job PM3_Optimized/mol_32_conf2 E -64.789432430381
  O           2.85364407292413     -1.36135250221139     -0.10462259398547
  B           2.14216807153645     -0.02113831615432     -0.08163610637475
  O           3.11196333818905      1.17169626414699     -0.12143065704027
  C           0.50595078953098      0.09417216474960     -0.02040845523506
  C          -0.10772616141245      1.34979967701141     -0.00529803895840
  C          -1.49465050155271      1.45558184543953      0.04717190923488
  C          -2.29066860424627      0.31894205414974      0.08532919750993
  C          -1.67317101842164     -0.93912342472300      0.06972366182273
  O          -2.51120399960563     -2.02018995345318      0.10846462885587
  C          -0.27723031554754     -1.06000208949193      0.01687399460179
  H           3.78880776996972     -1.20764197328019     -0.13929452377356
  H           2.59015289185805      1.96350042710343     -0.10491671647962
  H           0.49371449316955      2.26721693403715     -0.03475226116537
  H          -1.96368071936045      2.44532794239198      0.05855198687872
  H          -3.38270258023531      0.40123668256498      0.12689398408797
  H          -1.97747943180259     -2.80510017800299      0.09463856278243
  H           0.19211090500666     -2.05292555427782      0.00471142723818
