19
Coordinates from ORCA-job PM3_Optimized/mol_43_conf2 E -59.484939842604
  C           0.04443122065435      2.16001648996912     -0.12782817299612
  C          -0.49413438928623      0.77389864773051     -0.04273152706835
  C          -1.88292691902606      0.61450088069228      0.02887458257731
  C          -2.45637333019926     -0.64706409858676      0.10719260969200
  C          -1.64475694348025     -1.77551633859778      0.12018177457059
  C          -0.26426377054569     -1.63281522713231      0.05573346792900
  C           0.32452975387573     -0.36650207564275     -0.02948769535352
  B           1.96852199583159     -0.31555199085285     -0.11655133539004
  O           2.71714881107718      0.52652226373145     -1.12995764083151
  O           2.90672775306058     -1.13390675806671      0.78900600080820
  H           0.62034171612329      2.30688440370300     -1.05215343082460
  H          -0.75563849260544      2.91371082791366     -0.11966097333852
  H           0.70774781789373      2.38411744359999      0.71844432677541
  H          -2.52906004817130      1.50079584707667      0.01995875752361
  H          -3.54504895509268     -0.75254241036575      0.15834007793576
  H          -2.09066491248536     -2.77359459319326      0.18080120433911
  H           0.35868169383500     -2.53583880595533      0.06776116042102
  H           3.64783297775641      0.38189170933813     -1.01743777548032
  H           2.36690502078441     -1.62900421536131      1.38951558871098
