16
Coordinates from ORCA-job PM3_Optimized/mol_14_conf2 E -66.412004406287
  O           3.13147746761273      0.15535519167671     -0.30431702097983
  B           1.91573134100723     -0.71206689268727     -0.04254903498214
  O           2.27615629723501     -2.18798371215889      0.18751612674269
  C           0.40236275053367     -0.07864649979847     -0.01573794869209
  C           0.22109622408974      1.30706475205565      0.06043866339089
  C          -1.05816756016926      1.86021782817079      0.08624757575418
  C          -2.17877009753057      1.03616175294773      0.03309408793470
  C          -1.97020951882881     -0.32657045560683     -0.04492106786731
  Br         -3.46468046530263     -1.44461543861975     -0.11927259566137
  C          -0.72064516006171     -0.91248590009046     -0.07080430897973
  H           3.90592415899637     -0.39166470474472     -0.28161666455883
  H           1.47397940180042     -2.66393158918712      0.35359553429527
  H           1.08994056466009      1.97644256325513      0.09796271377149
  H          -1.18176306739812      2.94674608192729      0.14691368734774
  H          -3.19593019859934      1.44033932315696      0.05067956819635
  H          -0.64650213804483     -2.00436430029672     -0.13723131571201
