20
Coordinates from ORCA-job PM3_Optimized/mol_10_conf1 E -78.463889048560
  O          -1.41298259425323     -2.53481867241499      1.29032625874631
  B          -0.90710231635049     -1.83156697424451      0.04659294396807
  O          -0.65393390801029     -2.79285640480398     -1.12317887715352
  C          -0.75100794203850     -0.18799930251378     -0.00145982822411
  C          -1.94533735169632      0.53593574348194     -0.10081646146962
  C          -1.93665382250704      1.92447993200040     -0.15085480735340
  C          -0.72970069219118      2.61090567684717     -0.09409761602428
  C           0.46253059493754      1.90542372051345      0.01320359200938
  C           0.46662357107689      0.50590487825519      0.05761761003241
  B           1.94574550223126     -0.20561640550904      0.18054714179287
  O           2.73242538440990     -0.14346635915923      1.49183240146378
  O           2.59228411799456     -0.87795355017969     -1.04017633665091
  H          -1.46410181763231     -3.46578510434095      1.11554647616028
  H          -0.30101472903299     -2.29159112387996     -1.84508967260621
  H          -2.90981083136966      0.01458243381932     -0.13430751456182
  H          -2.87962673203308      2.47551144061487     -0.23014586323077
  H          -0.71705997649357      3.70530333813453     -0.12936961633372
  H           1.40268528600716      2.46744724172600      0.06731183360214
  H           3.56114260188151     -0.59291658963615      1.39633819422369
  H           3.44489365506984     -1.22092591871059     -0.80982085839058
