22
Coordinates from ORCA-job PM3_Optimized/mol_47_conf2 E -85.418352014435
  C           4.17659575948562      0.64148951715873      0.35646940799246
  O           2.91647957582256      0.00532394760435      0.32250245467232
  C           1.85590810065329      0.68493336082964     -0.21127700467287
  O           2.02519696005661      1.81650770412428     -0.62288964903816
  C           0.58325188668013     -0.08527459032648     -0.20381150701648
  C           0.57265416249905     -1.46553990144188     -0.40931252306114
  C          -0.63763785625988     -2.14988847335447     -0.41210411071071
  C          -1.83230930661539     -1.46748117374760     -0.20714815038171
  C          -1.82955453722573     -0.08493308087237     -0.00579352650065
  B          -3.25058665369535      0.72978567960059      0.22894904358399
  O          -3.53132290115182      2.14005122096691     -0.24889924002719
  O          -4.45893722522516      0.16558191770183      0.95301904348742
  C          -0.61600762694241      0.60457585425702     -0.00867610553427
  H           4.15799823091131      1.54924433816958      0.96894916690220
  H           4.80849412690389     -0.12015214022256      0.82026540319218
  H           4.53922807122941      0.88109218202519     -0.64882183713263
  H           1.51008121920966     -2.01139834662223     -0.56812940470034
  H          -0.64901972602850     -3.23312715070723     -0.57543717673895
  H          -2.77393803370456     -2.03064835533086     -0.21196655601038
  H          -2.75368291175823      2.44361736351799     -0.69919008021967
  H          -4.22730841682473     -0.70674670799599      1.24388990755100
  H          -0.58558289801977      1.69298883466558      0.13941044436356
