16
Coordinates from ORCA-job PM3_Optimized/mol_28_conf2 E -69.593263556518
  O           3.05844428513866     -0.52872815113016     -1.00691287387202
  B           2.13189188897599      0.06755211451425      0.02781815213570
  O           2.92237830437514      0.70593161568026      1.15456558329375
  C           0.46929164713996      0.01836886327235     -0.03023630525096
  C          -0.23003030710278     -0.07927738161143      1.17715562929490
  C          -1.61857484420136     -0.13073738105320      1.20917218468514
  C          -2.34849389188385     -0.08052286097335      0.02633636149306
  C          -1.69014700329221      0.01555121860456     -1.19125756841518
  C          -0.28726665390098      0.06021664028685     -1.21787622653440
  F           0.30079469351887      0.14485784367079     -2.42546985633054
  H           2.52039414653203     -0.88630828290466     -1.70075827700079
  H           2.29634304166879      1.08943190326901      1.75483662490297
  H           0.31559522803126     -0.12344839471231      2.12864908570181
  H          -2.13940907970171     -0.21036228071004      2.16944953989603
  H          -3.44289504292524     -0.11743640172431      0.05248286095950
  H          -2.25831841237256      0.05491093552139     -2.12795391495898
