16
Coordinates from ORCA-job PM3_Optimized/mol_35_conf1 E -64.028163953257
  O           2.94526928243590      0.15779395618162     -1.13150147561441
  B           2.03547621577205     -0.21653078836449      0.02298085852886
  O           2.80687311408212     -0.78160922519744      1.22650274730812
  C           0.40991707357626     -0.01596954285963     -0.06456174693346
  C          -0.17518770978749      0.49844130690881     -1.22706151305151
  C          -1.55536433236045      0.67313840594506     -1.31320618429239
  C          -2.37330889019951      0.33627575022628     -0.23775500503833
  C          -1.77123948023301     -0.16946673242754      0.89864265925345
  I          -2.91904436205220     -0.64907733209859      2.42586403094449
  C          -0.40808162706065     -0.35641803323102      1.02034727051640
  H           3.84143107142253     -0.03218527157518     -0.88604269059256
  H           2.17828950336740     -0.99188203925433      1.90385302709771
  H           0.44987018080454      0.77094895706178     -2.08690077849030
  H          -1.99825911415560      1.07684588344618     -2.22988760844701
  H          -3.45991720340070      0.46290925208160     -0.27764739577046
  H          -0.00672372221117     -0.76321454684309      1.95637580458139
