16
Coordinates from ORCA-job PM3_Optimized/mol_34_conf2 E -64.018198565001
  O           2.86473597605042      0.53857384236960     -1.07687716186747
  B           2.01618029115647     -0.07624885953818      0.01549668788037
  O           2.82738999380914     -0.90272701735078      1.02555869326150
  C           0.36926280278652      0.04428986032458     -0.00494319627349
  C          -0.31572370645920     -0.89900103782727     -0.78697822394392
  C          -1.70316205068940     -0.88229513796343     -0.87379577477501
  C          -2.44029649198402      0.07686739944743     -0.18464785254996
  C          -1.78018226896510      1.02201268169882      0.59218217776531
  C          -0.39450220148439      0.98785578759384      0.66645609334703
  I           0.40354360452642      2.39589815318030      1.80371765934873
  H           3.77589364190462      0.34119411198967     -0.90116418568286
  H           2.22964829265617     -1.23677125318927      1.67930730078634
  H           0.23822443106503     -1.66139867815582     -1.34808279999803
  H          -2.21844286446981     -1.62626614539749     -1.49072009197789
  H          -3.53283916092657      0.08948328173873     -0.25516767975812
  H          -2.33973028897630      1.78853401107925      1.13965735443745
