17
Coordinates from ORCA-job PM3_Optimized/mol_31_conf1 E -64.785356661314
  O          -2.59930743331973      1.63904359883564     -0.25574851164757
  B          -1.95356532832268      0.26721941219036     -0.13326001354092
  O          -2.96779724400109     -0.88712180964699     -0.12365158795202
  C          -0.33349014560816      0.04210335399778     -0.02237547663166
  C           0.09582249263467     -1.29034958453360      0.08568234414790
  C           1.43739058791553     -1.61712491109088      0.18597260111708
  C           2.39970912168444     -0.60709834698016      0.18094481877097
  C           2.01669446733627      0.71719918658385      0.07623189187297
  C           0.64959017573941      1.05181591768232     -0.02606642464977
  O           0.43146280286303      2.39364167948827     -0.12191693294276
  H          -3.53984802621095      1.53159688946637     -0.30616840879374
  H          -2.46082649362265     -1.68866480672293     -0.04387611327783
  H          -0.65381869709695     -2.09759563777827      0.09087753249577
  H           1.74399762132521     -2.66463084190851      0.26906420801381
  H           3.46130614166542     -0.86450003396534      0.26021029888450
  H           2.77253576439446      1.51213361822072      0.07228391090874
  H          -0.49985780737622      2.56233231616137     -0.18820413677545
