18
Coordinates from ORCA-job PM3_Optimized/mol_16_conf1 E -69.124413346562
  O           0.45626512749761      3.17921279303395      0.54937035125040
  C           0.56830757681536      2.20598217858455     -0.16098133994707
  C          -0.26930928852567      0.98157437058848      0.01702342762502
  C          -1.63226006511801      1.15714624684599      0.27273717581837
  C          -2.47589850736224      0.06233432512708      0.41280026494693
  C          -1.95897083394062     -1.22360800746404      0.31127985753031
  C          -0.60140282275248     -1.40901792304880      0.07459615210166
  C           0.25622439709718     -0.31499551557441     -0.08063174411727
  B           1.84773151172134     -0.64941951620737     -0.36323659115140
  O           2.65678931465723     -1.71202439676648      0.39323781188058
  O           2.65042983904511      0.05630431128221     -1.43725746706449
  H           1.29532347943189      2.20263618709376     -0.98948628302384
  H          -2.03716335667278      2.17252426390188      0.36752752668842
  H          -3.54331098594321      0.21356281454284      0.60566127500456
  H          -2.61842150729956     -2.09127944917220      0.42035021599989
  H          -0.21533647165385     -2.43382222997064      0.00601729932457
  H           2.09183037496157     -2.09628365530707      1.04941934349968
  H           3.52917321804113     -0.30082579748972     -1.44842727636633
