20
Coordinates from ORCA-job PM3_Optimized/mol_42_conf1 E -70.265761479716
  C          -3.63895213368779     -0.21854254646881     -0.45067388760697
  O          -2.66752732391582      0.74745289251564     -0.77953440650858
  C          -1.36626392706510      0.46328487192481     -0.41892518570684
  C          -0.39475023192012      1.28437945797891     -1.01124710429289
  C           0.93899226670606      1.09762291268232     -0.67942060848921
  C           1.32166760525221      0.10521076539660      0.23133763285158
  B           2.89941411215062     -0.10155761126087      0.60573354458670
  O           4.05918184424193      0.73610277686757      0.03456088029107
  O           3.36826626961064     -1.16998440023900      1.57688356386312
  C           0.34299950370016     -0.70273582915511      0.81566658759774
  C          -0.99848594009683     -0.52797571365569      0.49653763879272
  H          -3.50151523925376     -0.64686737965108      0.55354782359566
  H          -4.57484550002480      0.34236830548712     -0.50482176761805
  H          -3.63641695002382     -1.02726628598082     -1.18940819932175
  H          -0.68629781327182      2.06431816104081     -1.72397725719423
  H           1.69396839040051      1.74378945252421     -1.14674286284110
  H           3.68180600160759      1.37396872070702     -0.55726610054106
  H           4.31227019330817     -1.11749028425384      1.65046463947170
  H           0.62015140168327     -1.48382036229216      1.53448036409897
  H          -1.77366352940129     -1.15401290416763      0.96280670497143
