16
Coordinates from ORCA-job PM3_Optimized/mol_24_conf1 E -65.056134549665
  O           2.90343351653420     -0.97792897230451     -0.75041713203866
  B           2.05102267233988     -0.02249479619170      0.06117570540442
  O           2.88291825002565      0.92994209411299      0.93675502772839
  C           0.41343164459145     -0.04028065987231     -0.01932473069135
  C          -0.24210948460893     -0.95344785644149     -0.85093356632318
  C          -1.63208641771576     -0.96869260860785     -0.91921561664455
  C          -2.36155085235521     -0.06638280772181     -0.15190272695052
  Cl         -4.06489767051895     -0.08188950616380     -0.23275740402632
  C          -1.72663051606786      0.85006529913290      0.68171936353527
  C          -0.33811434343669      0.85922414239028      0.74462491237208
  H           3.81657941037875     -0.80496028915634     -0.56139819674350
  H           2.27787583538583      1.48894870178050      1.40649707875876
  H           0.33007646384003     -1.66656995291864     -1.45763681807843
  H          -2.14934648437380     -1.68270190950125     -1.56957477841519
  H          -2.31780017151268      1.55307391115388      1.27862146863808
  H           0.15719714749408      1.58409421030916      1.40376941347471
