18
Coordinates from ORCA-job PM3_Optimized/mol_18_conf1 E -69.131106412228
  O           4.02806761519311     -1.17409988582627     -0.46693438476333
  C           3.33204900283566     -0.22437250704125     -0.74513508864286
  C           1.87048386347268     -0.16920687539830     -0.48380236166537
  C           1.16965149756070      0.99096201823464     -0.82200018016202
  C          -0.19681322715703      1.07646195386741     -0.58855972174517
  C          -0.88367468401396      0.00050520320580     -0.01641775029686
  B          -2.50057316205584      0.09570780296069      0.26069903062592
  O          -3.29546844451616      1.39390686666903      0.47130103628869
  O          -3.36453692464593     -1.14576493552293      0.33637759133221
  C          -0.18266358220704     -1.16045393637512      0.31561057927927
  C           1.18813648687193     -1.24341055892375      0.08522201916986
  H           3.77725595231471      0.66667856923124     -1.21986507328559
  H           1.70007519302296      1.83822692579538     -1.27362987008181
  H          -0.72388377509938      1.99740494368589     -0.86630119826054
  H          -2.68832019873100      2.11975119820703      0.42878526421830
  H          -4.26132625848300     -0.88427172179605      0.50086221159572
  H          -0.70292180065310     -2.02032751714104      0.75603303302655
  H           1.73446244629067     -2.15769854383241      0.34983886336703
