20
Coordinates from ORCA-job PM3_Optimized/mol_19_conf1 E -75.669808251661
  N           2.82203879265322     -0.14323806153792     -0.14698829329660
  C           1.75677266285097      0.16207816908098      0.73365218681703
  O           2.01147589520991      0.79365520626888      1.75054618552245
  C           0.41947960433428     -0.42726767837217      0.41037137148972
  C           0.24979996198818     -1.77751638869123      0.72971098766293
  C          -0.95911560643881     -2.41405983384440      0.47892032342988
  C          -2.00557159097231     -1.70451042902404     -0.09819338122531
  C          -1.84322298248149     -0.36079118359017     -0.41666140883389
  C          -0.63555271233943      0.29818096759787     -0.16010890995649
  B          -0.56246113215581      1.90243920976388     -0.54748978447506
  O          -0.01585966306380      3.02172539819222      0.33603772426880
  O          -1.08283311607577      2.39161693987203     -1.88596121595260
  H           3.63440710647331      0.42502986022545     -0.05976094651254
  H           2.55149595424979     -0.30891528127640     -1.08868231931403
  H           1.07414145356806     -2.33774465434138      1.18689847184024
  H          -1.08476509668874     -3.47129528488919      0.73557561532602
  H          -2.95930391058604     -2.20270250979745     -0.30307563766939
  H          -2.67981922692623      0.17806839207184     -0.87912068276391
  H           0.29658013796842      2.64052885080859      1.14648011018303
  H          -0.98768653156771      3.33471831148260     -1.92215139654027
