16
Coordinates from ORCA-job PM3_Optimized/mol_30_conf2 E -69.604049893582
  O          -2.73471853497429     -1.49393123704790      0.32616149540413
  B          -2.01790900666068     -0.17539397372323      0.11266249670997
  O          -2.97881765719324      1.01949692008136     -0.00950296632097
  C          -0.38346183474328     -0.08157886650117      0.02793177641605
  C           0.24024199545049      1.15471022652266     -0.16855255524117
  C           1.62406855662268      1.24967049027364     -0.24233167894110
  C           2.39027248042011      0.08386282744403     -0.11654703858221
  F           3.72855469838676      0.16398722526053     -0.18630681910859
  C           1.78355615726849     -1.16215600512649      0.08056833222923
  C           0.39674595916053     -1.23509208156995      0.15145804648479
  H          -3.66897554653803     -1.33186141411659      0.34556906794477
  H          -2.45261143017120      1.79745810620409     -0.14070007816960
  H          -0.35544776890203      2.07181002671269     -0.26773194936256
  H           2.11032240704640      2.21925950977913     -0.39631357319554
  H           2.39412798051898     -2.06684072526223      0.17756684037756
  H          -0.07594845569168     -2.21340102893056      0.30607060335523
