23
Coordinates from ORCA-job PM3_Optimized/mol_5_conf3 E -81.170687437779
  C          -4.10244188011453      1.05438820056057      0.16494352194283
  C          -2.95291920547507      0.08834915941032      0.31429111733011
  O          -2.96059269518577     -0.85518558873560      1.08687514095387
  N          -1.84627135834948      0.29612621049132     -0.57319877169163
  C          -0.55488476596967     -0.31487777086054     -0.36247148110694
  C          -0.43487448145635     -1.70388529738032     -0.24617754680420
  C           0.82759341114128     -2.27131148939497     -0.11646318014787
  C           1.96621191721396     -1.47416144610809     -0.11167400818190
  C           1.85346176723373     -0.08629122288594     -0.23681845448629
  B           3.19684075482635      0.85459441859910     -0.23510276711545
  O           3.12380424473253      2.36126609529235     -0.40883265774513
  O           4.63733335769287      0.34342871336427     -0.06496999648732
  C           0.59078381708600      0.49373458073038     -0.36059484040596
  H          -4.95216231935371      0.76699629834401      0.79880631141594
  H          -4.46291521995006      1.09136728875980     -0.87202736853785
  H          -3.80599153388937      2.07165339523018      0.45443630173061
  H          -1.77301974829985      1.24096461061135     -0.88544270283448
  H          -1.32282593675239     -2.34796213937464     -0.24312069717764
  H           0.92321352200776     -3.35815978000192     -0.01843844137965
  H           2.94998529446088     -1.94962948759290     -0.00894592664590
  H           4.00415345076649      2.71239650786509     -0.37684139665094
  H           4.59572834461159     -0.59832396717506      0.03843023802040
  H           0.49979026302283      1.58452171025121     -0.46118939399460
