30
Coordinates from ORCA-job PM3_Optimized/mol_9_conf1 E -98.628302124842
  O           6.19858650797587     -1.11645642370348     -0.50231278836013
  B           5.28420290194255     -0.17059405350418      0.25720340600009
  O           6.10509481588430      0.73329880811956      1.16196873396875
  C           3.64183419125166     -0.13083877079732      0.12180402629530
  C           2.84952104077238      0.20491074005551      1.21948175091738
  C           1.46221499347475      0.23727218253433      1.11827184709685
  C           0.85740523209163     -0.06564463605972     -0.10603241135411
  O          -0.49320526061169     -0.07291691296496     -0.35966458838142
  C          -1.35928167224917      0.25643835466583      0.72547938380139
  C          -2.75706860937269      0.17002928598527      0.18543675646605
  C          -3.36214770616030      1.29634999022775     -0.37251799578833
  C          -4.66228704626269      1.21736345015385     -0.85939330284456
  C          -5.36084593206939      0.01636683460374     -0.79259511215125
  C          -4.75808523315265     -1.10836503049193     -0.23880628854150
  C          -3.45824917429250     -1.03434694486820      0.24942953384735
  C           1.64447766731443     -0.40204869797297     -1.22157913625249
  C           3.02447856981694     -0.43464756555679     -1.09719708961026
  H           5.64221148802869     -1.66774462433317     -1.03692110350142
  H           5.49519750403595      1.31467348111958      1.59697071819793
  H           3.30779342915421      0.44533357618671      2.18694192216259
  H           0.86969301241744      0.50065730612073      2.00181867661361
  H          -1.20963946754952     -0.45251040634921      1.56360340777812
  H          -1.13603228975237      1.27599407553009      1.09710519730528
  H          -2.81185818926457      2.24239560981891     -0.42961386529698
  H          -5.13519111259981      2.10250907063684     -1.29731758182238
  H          -6.38444891177695     -0.04412338641937     -1.17659898995063
  H          -5.30667188267741     -2.05461703603541     -0.18814899079444
  H          -2.98322668777141     -1.92224533200329      0.68193344949515
  H           1.16976232720401     -0.63751371835842     -2.18169683967625
  H           3.62576749419832     -0.69897922634029     -1.97597472561969
