22
Coordinates from ORCA-job PM3_Optimized/mol_2_conf1 E -85.421668291808
  C          -4.17328583308994      0.66700107472374      0.04714877454907
  C          -2.82325214786563      0.34752252466848     -0.52814162062286
  O          -2.44809230442210      0.47377561888386     -1.67366935914739
  O          -1.95982824170499     -0.14612189956208      0.42233608215479
  C          -0.65920796277542     -0.47811485159401      0.03854673461084
  C          -0.39480285981081     -1.74097950107016     -0.49748096852804
  C           0.92614234024958     -2.09625417521893     -0.74803877729470
  C           1.95915270266912     -1.20852849748727     -0.46819393408200
  C           1.68783278350736      0.05422404327406      0.06928355536509
  B           2.92571540429233      1.08098490119715      0.39044183440025
  O           2.71206214140559      2.44401042994205      1.01675544122003
  O           4.40403712762380      0.76781857712131      0.09806766988195
  C           0.36748165931127      0.42883508969939      0.32448334192040
  H          -4.64835751001571     -0.23476091676934      0.45555517314055
  H          -4.09156038079012      1.39980520751944      0.86083870327718
  H          -4.83921489122083      1.08393204586965     -0.71924089568505
  H          -1.21031446800295     -2.43743570408148     -0.72071628310300
  H           1.15212604846101     -3.08120653361680     -1.17028558211361
  H           2.99519170381453     -1.50945254199716     -0.67591937483468
  H           3.55495286687135      2.86879552956828      1.10964988827533
  H           4.43299325017419     -0.09843257899052     -0.28916275403065
  H           0.13022957131834      1.41458315792034      0.74501635064650
