20
Extracted from mol_1364.out
O -3.789388 0.883555 -0.276417
B -2.502949 1.252613 -0.048040
O -2.296035 2.573345 0.216330
C -1.292364 0.216203 -0.087497
C 0.046683 0.637958 0.009276
C 1.150607 -0.233702 -0.021648
B 2.610107 0.346654 0.090072
O 3.747150 -0.406303 -0.017734
O 2.748824 1.685801 0.304513
C 0.879996 -1.608446 -0.155042
C -0.426513 -2.085987 -0.259243
C -1.470880 -1.166893 -0.227354
F -2.728989 -1.662802 -0.339843
H -3.880029 -0.063304 -0.438959
H -1.381570 2.802772 0.412085
H 0.264663 1.706111 0.109132
H 3.598447 -1.341647 -0.195595
H 3.676842 1.952800 0.348246
H 1.696143 -2.339354 -0.177130
H -0.650743 -3.149377 -0.364523