34
Extracted from mol_193.out
O -2.467103 3.512628 0.340079
B -2.269732 2.238654 0.812775
O -3.182918 1.760816 1.707583
C -1.011381 1.385208 0.394792
C 0.217300 2.072026 0.282347
C 1.409273 1.425872 -0.037445
C 1.418230 0.042080 -0.273839
C 2.703806 -0.699619 -0.619372
C 3.719697 -0.650495 0.535997
C 3.326494 -0.195021 -1.932992
C 0.199213 -0.642292 -0.179640
C -1.012778 -0.010382 0.148368
C -2.290204 -0.846843 0.228476
C -2.531929 -1.686533 -1.038027
C -2.300007 -1.725145 1.493211
H -1.825204 3.767627 -0.333397
H -3.881795 2.407615 1.879455
H 0.247028 3.150525 0.474895
H 2.335904 2.003560 -0.099027
H 2.429338 -1.758390 -0.771171
H 3.286171 -1.048962 1.466942
H 4.050058 0.382282 0.737216
H 4.616311 -1.245450 0.294495
H 3.642738 0.858344 -1.851088
H 2.611271 -0.264842 -2.767980
H 4.217737 -0.788588 -2.196696
H 0.199528 -1.719573 -0.371742
H -3.134078 -0.149134 0.321663
H -3.510189 -2.192290 -0.980648
H -1.768712 -2.471078 -1.171850
H -2.528181 -1.059390 -1.944291
H -1.467123 -2.448662 1.486347
H -3.240857 -2.296594 1.564618
H -2.207906 -1.107957 2.399945