24
Extracted from mol_957.out
O -3.222669 2.632387 -0.142648
B -2.764043 1.343911 -0.161586
O -3.657450 0.329766 -0.340945
C -1.217329 1.115544 0.027554
C -0.359898 2.216941 0.204979
C 1.015012 2.082223 0.376988
C 1.592458 0.800518 0.377201
S 3.351445 0.728179 0.604021
C 3.735079 -1.045083 0.530362
C 0.771944 -0.326583 0.203652
C -0.610123 -0.160619 0.032107
O -1.449511 -1.235285 -0.141098
C -0.937374 -2.551370 -0.146656
H -4.180517 2.664503 -0.266078
H -3.191836 -0.522265 -0.331650
H -0.803052 3.216047 0.205659
H 1.644863 2.965483 0.510535
H 3.466167 -1.481306 -0.443672
H 3.248178 -1.605222 1.343132
H 4.824832 -1.114470 0.658493
H 1.206149 -1.323281 0.203115
H -1.795659 -3.220752 -0.295399
H -0.449580 -2.803612 0.811505
H -0.217082 -2.705653 -0.969482