22
Extracted from mol_1936.out
O 3.836455 -0.176481 -0.194455
B 2.665210 -0.864177 -0.058863
O 2.722924 -2.219087 0.072920
C 1.238982 -0.188840 -0.045420
C 0.080529 -0.980498 0.085626
C -1.219839 -0.447428 0.104062
B -2.508275 -1.349743 0.251164
O -2.474266 -2.710136 0.367448
O -3.717299 -0.726493 0.261456
C -1.357776 0.947554 -0.014417
C -0.220637 1.741201 -0.144114
N -0.374044 3.209247 -0.268322
O 0.644680 3.874653 -0.381924
O -1.505115 3.663808 -0.250096
C 1.064393 1.197892 -0.161135
H 3.745612 0.778653 -0.288858
H 3.631740 -2.548458 0.052888
H 0.230572 -2.061548 0.176006
H -1.592092 -3.098784 0.353202
H -4.451782 -1.348059 0.354641
H -2.342114 1.416136 -0.006068
H 1.902142 1.890586 -0.265741