25
Extracted from mol_1742.out
O 3.473997 1.307414 0.970312
B 2.497519 1.077314 0.039704
O 2.494789 1.878445 -1.043927
C 1.487215 -0.150635 0.262684
C 2.040554 -1.309421 0.843161
C 1.286731 -2.458891 1.070939
C -0.063447 -2.475872 0.725667
C -0.660008 -1.342846 0.162199
C -2.134500 -1.436725 -0.196293
F -2.410190 -0.825125 -1.366094
F -2.519241 -2.718964 -0.332057
F -2.926974 -0.893573 0.740293
C 0.110296 -0.180563 -0.070904
C -0.513090 1.030820 -0.713763
O -0.086825 1.565552 -1.717420
O -1.581115 1.465438 -0.051565
C -2.309645 2.552851 -0.634480
H 3.386648 0.769743 1.764507
H 1.729885 1.724118 -1.627244
H 3.103088 -1.316716 1.104318
H 1.750511 -3.347327 1.506770
H -0.659948 -3.375911 0.879400
H -2.707171 2.257778 -1.616997
H -3.128949 2.771668 0.060394
H -1.660133 3.431429 -0.759605