23
Extracted from mol_1902.out
O 3.728070 0.652255 0.531727
B 2.874437 -0.398418 0.383100
O 3.391726 -1.663051 0.415388
C 1.341432 -0.081929 0.185606
C 0.389249 -1.085673 -0.047290
C -0.982045 -0.815732 -0.226324
B -1.991245 -1.998903 -0.486195
O -1.488055 -3.265418 -0.521189
O -3.334611 -1.836161 -0.677077
C -1.387208 0.525240 -0.163192
C -0.463419 1.553290 0.068735
C -0.963722 2.974815 0.141442
F -1.791722 3.152541 1.191358
F 0.031637 3.865683 0.262757
F -1.669594 3.304683 -0.959696
C 0.888303 1.250882 0.239584
H 4.643281 0.365474 0.652445
H 2.739410 -2.367045 0.322332
H 0.697713 -2.135312 -0.101628
H -2.175799 -3.924659 -0.685458
H -3.644653 -0.924123 -0.644365
H -2.439472 0.797861 -0.297970
H 1.606286 2.053702 0.415910