16
Extracted from mol_1474.out
O -2.671628 1.052490 -0.760985
B -2.088429 0.033660 -0.071938
O -2.899784 -0.885267 0.534518
C -0.512895 -0.014604 -0.015401
C 0.200014 -1.092366 0.539676
C 1.593393 -1.103843 0.576438
C 2.319256 -0.025164 0.054963
Br 4.215732 -0.095359 0.135770
C 1.630389 1.063418 -0.507132
Br 2.541618 2.565086 -1.237261
C 0.231963 1.056539 -0.538456
H -3.636853 1.008835 -0.730410
H -2.435833 -1.561516 1.040729
H -0.328080 -1.959000 0.952084
H 2.132786 -1.948822 1.008345
H -0.291648 1.905917 -0.980939