23
Extracted from mol_725.out
O -4.130074 1.742692 0.176738
B -3.587379 0.488321 0.169685
O -4.469419 -0.541703 0.120880
C -2.013236 0.259194 0.212434
C -1.107660 1.332315 0.165540
C 0.283283 1.194623 0.196243
C 0.808464 -0.100278 0.277965
O 2.149793 -0.437149 0.317476
C 3.202983 0.432334 0.299130
O 3.107690 1.628476 0.248021
C 4.494567 -0.345004 0.351540
C -0.045905 -1.208702 0.323555
C -1.429435 -1.026955 0.288367
O -2.266302 -2.110395 0.327495
H -3.485061 2.453571 0.244419
H -4.013981 -1.395819 0.138824
H -1.495929 2.354261 0.095189
H 0.938875 2.058974 0.157505
H 5.340183 0.353069 0.347885
H 4.522618 -0.970085 1.257657
H 4.560513 -1.022627 -0.514145
H 0.393541 -2.208071 0.384761
H -1.758129 -2.931045 0.369376