20
Extracted from mol_1560.out
O -3.737125 -0.321955 -0.095149
B -2.526626 -0.624387 0.463449
O -2.495923 -1.522961 1.486290
C -1.157260 0.002120 -0.009090
C 0.060130 -0.529003 0.454775
C 1.309634 -0.020990 0.057873
B 2.661832 -0.651626 0.595686
O 2.746688 -1.221876 1.829532
O 3.804993 -0.655094 -0.146470
C 1.323993 1.070352 -0.832133
C 0.126523 1.621102 -1.292352
Br 0.170132 3.114662 -2.483899
C -1.103819 1.096246 -0.891186
H -3.696572 0.276064 -0.850070
H -3.374775 -1.867477 1.695441
H 0.014859 -1.381395 1.139639
H 1.942517 -1.122185 2.351687
H 3.678496 -0.335034 -1.046566
H 2.270504 1.510431 -1.158340
H -2.018200 1.563005 -1.269118