22
Extracted from mol_1856.out
O 2.515153 -1.072927 1.131590
B 1.673372 -1.550350 0.174545
O 2.129582 -2.521936 -0.670923
C 0.170019 -1.033132 0.177878
C -0.854432 -1.785313 0.779093
C -2.178314 -1.337615 0.781344
C -2.497052 -0.120815 0.181354
C -1.480796 0.645548 -0.393878
N -1.896745 1.939903 -0.974557
O -2.966844 1.962584 -1.561993
O -1.167658 2.902176 -0.807201
C -0.142877 0.207312 -0.418895
S 1.169721 1.051251 -1.314675
C 1.826460 2.177046 -0.030545
H 3.401771 -1.453494 1.054009
H 1.492070 -2.787800 -1.343737
H -0.613876 -2.741672 1.253420
H -2.964786 -1.936181 1.247647
H -3.521805 0.251224 0.147843
H 2.648962 2.727861 -0.510298
H 1.043089 2.879765 0.280455
H 2.214989 1.596566 0.817523