18
Extracted from mol_1905.out
O -3.020743 1.090989 0.169243
B -2.211063 0.084077 0.581048
O -2.738565 -0.899149 1.362182
C -0.661760 -0.074597 0.238388
C 0.022821 -1.186972 0.760821
C 1.376461 -1.408848 0.515326
C 2.104703 -0.503573 -0.279367
C 3.501423 -0.722477 -0.539732
N 4.628613 -0.903649 -0.749895
C 1.457140 0.617948 -0.818280
C 0.092865 0.824636 -0.559757
C -0.532176 1.987545 -1.131967
N -1.068543 2.916623 -1.579334
H -2.630270 1.781112 -0.385316
H -3.678132 -0.753972 1.539081
H -0.534582 -1.894176 1.377998
H 1.880172 -2.282005 0.935329
H 2.011636 1.326489 -1.435766