21
Extracted from mol_858.out
O 2.724910 -2.237217 -0.007907
B 2.612836 -0.908421 0.310505
O 3.726507 -0.259717 0.750533
C 1.264579 -0.104932 0.184249
C 0.016304 -0.752886 0.112263
C -1.191430 -0.045843 -0.014290
B -2.586555 -0.770671 -0.077349
O -2.775285 -2.076153 0.292903
O -3.669516 -0.067054 -0.514607
C -1.127619 1.357373 -0.082395
C 0.098039 2.030441 -0.003804
O 0.192303 3.384783 -0.057342
C 1.285490 1.297530 0.135744
H 1.926698 -2.608491 -0.401253
H 4.501353 -0.837820 0.761097
H -0.014071 -1.849769 0.159051
H -1.991125 -2.488455 0.673485
H -4.478091 -0.596408 -0.488988
H -2.055067 1.929203 -0.195344
H -0.691272 3.764017 -0.156651
H 2.231013 1.840489 0.201448