30
Extracted from mol_500.out
O -0.614271 -3.120574 -0.260976
B -1.673372 -2.319047 0.050068
O -2.856380 -2.934315 0.352037
C -1.666469 -0.733860 0.065833
C -2.922096 -0.093981 0.115573
C -3.024009 1.294266 0.101821
C -1.873223 2.083185 0.045651
C -0.606280 1.481793 0.004054
S 0.916319 2.415660 -0.046350
C 0.353447 4.142662 -0.020062
C -0.499831 0.066864 0.010957
C 0.869092 -0.550471 -0.019331
C 1.495542 -0.965369 1.170238
C 2.768329 -1.541770 1.144247
C 3.437273 -1.715439 -0.071882
C 2.827637 -1.306824 -1.262095
C 1.555163 -0.725753 -1.236266
H 0.199682 -2.638185 -0.459195
H -2.772418 -3.895749 0.298128
H -3.822923 -0.708829 0.164667
H -4.005129 1.776382 0.136744
H -1.973976 3.168784 0.039201
H 1.272956 4.745052 -0.048589
H -0.258637 4.391850 -0.900196
H -0.197947 4.383513 0.901578
H 0.973679 -0.832132 2.121296
H 3.238964 -1.859425 2.078571
H 4.431753 -2.169045 -0.091959
H 3.343968 -1.438830 -2.216724
H 1.083158 -0.400412 -2.167038