36
Extracted from mol_644.out
O 1.267652 0.913615 3.592193
B 0.431287 0.635804 2.549434
O -0.906098 0.538572 2.781861
C 1.091171 0.443229 1.124712
C 2.479350 0.562364 0.986080
C 3.129356 0.401634 -0.248338
C 4.610711 0.546192 -0.297372
O 5.313192 0.795120 0.655769
O 5.106997 0.366574 -1.542523
C 6.520610 0.487296 -1.677238
C 2.361525 0.110609 -1.384328
C 0.975598 -0.016602 -1.289530
C 0.345595 0.148994 -0.045331
O -1.008002 0.038128 0.112405
C -1.850807 -0.261320 -1.004792
C -3.279165 -0.311553 -0.527783
C -4.052111 0.858609 -0.473744
C -5.364858 0.821657 0.003422
C -5.918766 -0.388391 0.434062
C -5.156235 -1.559688 0.386050
C -3.843196 -1.519776 -0.090941
H 0.779340 1.012885 4.420093
H -1.383809 0.338145 1.960736
H 3.084610 0.787931 1.866387
H 6.744476 0.313230 -2.737649
H 6.861022 1.490270 -1.375657
H 7.040673 -0.254532 -1.051180
H 2.854135 -0.017145 -2.349445
H 0.401447 -0.243693 -2.187421
H -1.551004 -1.230034 -1.441386
H -1.725447 0.517464 -1.777448
H -3.621134 1.806424 -0.809803
H -5.957775 1.739394 0.038430
H -6.946437 -0.418685 0.805806
H -5.585502 -2.507685 0.720824
H -3.248401 -2.437330 -0.126355