24
Extracted from mol_1871.out
O -2.107693 -2.894710 -0.257433
B -2.074676 -1.619964 -0.744596
O -3.104345 -1.246802 -1.572981
C -0.883761 -0.625149 -0.461263
C -1.022075 0.750329 -0.109268
B -2.401402 1.515340 0.129640
O -3.561322 1.227492 -0.504815
O -2.454758 2.557369 1.020157
C 0.164503 1.486452 0.064970
C 1.439669 0.936615 -0.091971
C 1.573243 -0.419097 -0.419247
S 3.114068 -1.269849 -0.644957
C 4.363458 0.017602 -0.362446
C 0.400882 -1.179502 -0.588888
H -1.389701 -3.090772 0.356964
H -3.768378 -1.944338 -1.675555
H -3.496125 0.476606 -1.118302
H -1.640671 2.661852 1.523826
H 0.102135 2.550253 0.319179
H 2.314649 1.573973 0.043379
H 4.277995 0.835433 -1.093644
H 5.333737 -0.480597 -0.500270
H 4.313243 0.418812 0.660991
H 0.507327 -2.237348 -0.854313