26
Extracted from mol_1128.out
O -2.280229 1.704535 -0.688767
B -2.498107 0.421750 -0.280162
O -3.786600 0.060337 0.007009
C -1.309042 -0.613650 -0.203422
C -1.547223 -1.966670 -0.513230
C -0.527766 -2.917968 -0.464136
C 0.759202 -2.522871 -0.094474
C 1.064970 -1.183313 0.219022
B 2.569337 -0.815969 0.594125
O 3.275032 0.139605 -0.050222
O 3.225087 -1.525507 1.561486
C 0.006165 -0.264325 0.151687
O 0.205249 1.059427 0.568998
C 0.755755 1.974964 -0.266805
O 1.318231 1.678990 -1.294181
C 0.566841 3.367431 0.262883
H -3.106140 2.207252 -0.727106
H -3.873251 -0.834463 0.356245
H -2.552359 -2.280346 -0.814871
H -0.733866 -3.961700 -0.714968
H 1.556989 -3.271768 -0.056395
H 2.760047 0.586259 -0.745192
H 2.651254 -2.151273 2.017417
H -0.490562 3.640948 0.121270
H 0.781364 3.402976 1.340800
H 1.209627 4.065347 -0.287007