24
Extracted from mol_964.out
O -0.404354 3.516243 -0.229249
B -1.124006 2.445515 0.229296
O -2.456691 2.612758 0.450765
C -0.331902 1.098072 0.469900
C 1.072747 1.144234 0.399795
C 1.888459 0.034203 0.635144
C 1.297426 -1.196932 0.953499
O 1.977533 -2.340604 1.205279
C 3.387953 -2.333093 1.155105
C -0.104744 -1.285844 1.019899
C -0.900286 -0.165477 0.779532
S -2.687906 -0.420249 0.925611
C -3.172481 -0.517513 -0.839411
H -0.967090 4.296266 -0.324106
H -2.863880 1.799747 0.810986
H 1.544421 2.099367 0.156262
H 2.971889 0.141107 0.571054
H 3.821991 -1.638650 1.897140
H 3.762116 -2.060093 0.151666
H 3.714293 -3.355191 1.390782
H -0.555263 -2.250151 1.261393
H -4.254742 -0.714280 -0.854053
H -2.645495 -1.342955 -1.338629
H -2.969987 0.433521 -1.351739