19
Extracted from mol_97.out
O -2.365059 -1.780891 0.910096
B -1.887516 -0.665343 0.271145
O -2.804455 0.234055 -0.184393
C -0.345208 -0.430538 0.035031
C 0.481116 -1.562460 -0.104184
C 1.856468 -1.474031 -0.328844
C 2.427091 -0.204388 -0.407627
Br 4.305134 -0.029311 -0.704170
C 1.643727 0.944265 -0.272251
C 0.259434 0.851639 -0.058924
C -0.539198 2.128709 0.069126
H -1.674152 -2.339587 1.284717
H -3.707545 -0.047888 0.018077
H 0.037592 -2.563283 -0.056870
H 2.468840 -2.370260 -0.441574
H 2.117201 1.926376 -0.335062
H -1.147406 2.136091 0.987196
H -1.247177 2.238604 -0.766956
H 0.121112 3.008240 0.085467