21
Extracted from mol_985.out
O -4.023882 0.584865 -0.024396
B -3.112139 -0.329338 0.411323
O -3.622267 -1.412017 1.065424
C -1.558207 -0.148233 0.177105
C -0.608111 -0.652416 1.085110
C 0.767022 -0.496015 0.899100
C 1.248685 0.176262 -0.234676
O 2.547077 0.378395 -0.514309
C 3.545894 -0.107123 0.362794
C 0.316174 0.691547 -1.173406
C 0.784067 1.377294 -2.343179
N 1.127105 1.936934 -3.301223
C -1.059107 0.526407 -0.949634
H -3.627891 1.387659 -0.381019
H -2.965330 -2.091226 1.253422
H -0.946253 -1.175583 1.985902
H 1.459313 -0.896587 1.639777
H 3.501310 -1.206148 0.459180
H 3.462704 0.348813 1.364932
H 4.508511 0.175720 -0.082284
H -1.744676 0.930791 -1.699938