34
Extracted from mol_567.out
O -5.385657 1.282161 1.377744
B -4.099688 1.617019 1.066370
O -3.730752 2.929799 1.229289
C -3.131188 0.501826 0.540584
C -3.631690 -0.740062 0.132782
C -2.784004 -1.743052 -0.356415
C -1.405359 -1.529656 -0.442615
O -0.505953 -2.431132 -0.898080
C -0.958007 -3.692884 -1.332546
C -0.868200 -0.278232 -0.023784
O 0.480385 -0.157112 -0.129692
C 1.099347 1.052353 0.283541
C 2.589536 0.924605 0.089777
C 3.202780 1.395599 -1.079858
C 4.580008 1.250038 -1.271022
C 5.359445 0.625503 -0.292623
C 4.756707 0.148293 0.876252
C 3.380465 0.297395 1.064226
C -1.733136 0.706441 0.452960
H -5.895783 2.052120 1.662367
H -2.840098 3.123407 0.916078
H -4.705496 -0.931458 0.194781
H -3.208583 -2.697574 -0.669847
H -1.451948 -4.256488 -0.519674
H -0.067842 -4.247177 -1.660326
H -1.660965 -3.608786 -2.181739
H 0.866477 1.249845 1.347260
H 0.706693 1.901089 -0.307890
H 2.594744 1.881395 -1.848855
H 5.045684 1.624885 -2.186514
H 6.436963 0.512052 -0.439616
H 5.361814 -0.340354 1.644722
H 2.911126 -0.078668 1.978074
H -1.307827 1.656807 0.784288