27
Extracted from mol_523.out
O -1.359165 1.717308 2.289607
B -1.103330 1.510955 0.972729
O -0.663482 2.558484 0.215534
C -1.354593 0.058987 0.377159
C -2.660984 -0.493074 0.408014
C -3.757373 0.241436 0.987976
N -4.666197 0.808196 1.436754
C -2.942650 -1.749718 -0.158352
C -1.918895 -2.475901 -0.762264
C -0.626407 -1.952478 -0.802410
C -0.328437 -0.696408 -0.240948
C 1.077279 -0.195854 -0.298393
C 1.715651 0.313695 0.848189
C 3.037577 0.761877 0.791891
C 3.748822 0.711263 -0.410898
C 3.128714 0.206132 -1.557935
C 1.807620 -0.245441 -1.501269
H -1.240725 2.642767 2.547113
H -0.463751 2.326442 -0.699305
H -3.960933 -2.142227 -0.121291
H -2.126843 -3.456796 -1.196976
H 0.178245 -2.536505 -1.256063
H 1.178329 0.337937 1.799867
H 3.516480 1.146585 1.696244
H 4.782939 1.062939 -0.454002
H 3.674576 0.166524 -2.504466
H 1.327535 -0.627126 -2.406504