21
Extracted from mol_1846.out
O -0.977307 -2.683636 0.687030
B -1.420681 -1.683846 -0.108238
O -2.383692 -2.016466 -1.017552
C -0.890636 -0.174962 -0.007026
C -1.760216 0.850230 -0.429816
C -1.424186 2.203694 -0.353302
C -0.179926 2.575238 0.145108
C 0.723391 1.584356 0.575026
C 2.008854 2.008731 1.065410
N 3.026060 2.429355 1.435150
C 0.367248 0.214893 0.511450
S 1.541559 -0.971065 1.198088
C 2.149116 -1.817739 -0.308262
H -0.258969 -2.390538 1.276378
H -2.609847 -1.309467 -1.630851
H -2.752973 0.585244 -0.807482
H -2.133867 2.967763 -0.679631
H 0.109668 3.626132 0.208554
H 1.340960 -2.373721 -0.802769
H 2.913811 -2.527859 0.038725
H 2.611631 -1.096338 -0.995991