23
Extracted from mol_1155.out
O -2.938132 1.998885 -0.098772
B -3.090717 0.658476 -0.272370
O -4.335930 0.184817 -0.592568
C -1.829366 -0.272415 -0.101831
C -1.948600 -1.664658 0.055912
C -0.818559 -2.468730 0.202441
C 0.446027 -1.883686 0.186860
Cl 1.859254 -2.919011 0.368714
C 0.615211 -0.487875 0.032654
N 1.914483 0.034910 0.028316
C 2.330346 1.345465 -0.128520
O 1.578231 2.284769 -0.294699
C 3.843487 1.505777 -0.067413
C -0.544691 0.297629 -0.105406
H -3.761381 2.482248 -0.250463
H -4.361020 -0.761306 -0.775364
H -2.932332 -2.145174 0.084572
H -0.903615 -3.549303 0.331442
H 2.642262 -0.661453 0.153740
H 4.089497 2.559096 -0.248283
H 4.229021 1.209295 0.922369
H 4.342210 0.878910 -0.824962
H -0.425687 1.373332 -0.218274