20
Extracted from mol_1362.out
O -2.759127 1.923616 0.836375
B -2.627865 0.730564 0.203077
O -3.745607 0.165663 -0.354991
C -1.234774 -0.012650 0.174627
C -1.169644 -1.405276 0.375931
C 0.047620 -2.089787 0.393102
C 1.233100 -1.379101 0.192799
C 1.235367 0.010187 -0.039469
B 2.593637 0.771660 -0.302526
O 3.733689 0.450393 0.388205
O 2.673201 1.724774 -1.265257
C -0.014493 0.646427 -0.033354
F -0.045119 1.971897 -0.240340
H -3.664539 2.260045 0.782547
H -3.563886 -0.641338 -0.850774
H -2.097004 -1.962980 0.544994
H 0.072037 -3.169305 0.561396
H 2.185436 -1.920146 0.194750
H 3.586418 -0.177878 1.104927
H 3.561553 2.103235 -1.323103