40
Extracted from mol_383.out
O -1.104147 -2.218767 -0.394859
B -0.666615 -0.957128 -0.691850
O -0.016203 -0.775811 -1.878324
C -0.888754 0.278298 0.277008
C 0.244665 0.798251 0.943305
O 1.417093 0.164784 0.657545
C 2.644350 0.674966 1.138439
C 3.791477 -0.084432 0.510860
C 5.013153 -0.188007 1.191927
C 6.103527 -0.836270 0.605006
C 5.980180 -1.398238 -0.669368
C 4.761738 -1.306063 -1.349658
C 3.672208 -0.651721 -0.766748
C 0.139798 1.859508 1.852039
C -1.120877 2.410936 2.104794
C -2.255298 1.913364 1.470648
C -2.151688 0.846300 0.553377
C -3.388449 0.350047 -0.120400
C -4.567344 0.127988 0.617772
C -5.733127 -0.323408 -0.005773
C -5.748221 -0.558394 -1.384336
C -4.587377 -0.338157 -2.131738
C -3.420627 0.111280 -1.507776
H -1.578876 -2.267984 0.443385
H 0.070102 -1.609358 -2.362434
H 2.723923 1.751470 0.885697
H 2.694734 0.596750 2.241448
H 5.113659 0.239924 2.194561
H 7.049411 -0.909712 1.148680
H 6.829834 -1.910946 -1.128432
H 4.657513 -1.748277 -2.344457
H 2.717498 -0.586198 -1.292977
H 1.016049 2.252812 2.367740
H -1.210135 3.244844 2.806585
H -3.229755 2.368996 1.659448
H -4.561831 0.295610 1.698003
H -6.633781 -0.496919 0.589753
H -6.660526 -0.910072 -1.873540
H -4.590647 -0.509533 -3.211715
H -2.526637 0.299268 -2.107259