20
Extracted from mol_1319.out
O 1.172358 -2.480119 1.382528
B 1.309822 -1.223000 0.862597
O 2.540326 -0.653342 0.908401
C -0.030706 -0.572513 0.279836
C -0.233296 0.751562 -0.202489
C 0.835850 1.795503 -0.395460
O 0.666709 2.966405 -0.124433
N 2.049813 1.351719 -0.925053
C -1.528263 1.204567 -0.514098
C -2.634957 0.365360 -0.420415
C -2.430440 -0.939615 0.019929
F -3.479092 -1.767278 0.116522
C -1.168072 -1.399378 0.377892
H 2.014325 -2.808093 1.725368
H 2.596765 0.204096 0.445363
H 2.665878 2.109924 -1.212036
H 2.017211 0.566568 -1.570943
H -1.653179 2.239645 -0.838314
H -3.641227 0.704458 -0.675085
H -1.069825 -2.416469 0.759890