20
Extracted from mol_1926.out
O 3.194805 0.261223 -1.009640
B 2.364236 -0.176461 -0.022020
O 2.886632 -0.835382 1.035114
C 0.824175 0.213287 -0.224285
C 0.566098 1.317014 -1.067041
C -0.725665 1.767817 -1.336933
C -1.822183 1.120498 -0.767413
C -1.603062 0.026444 0.065060
N -2.783270 -0.581144 0.717827
O -3.844596 -0.502514 0.126390
O -2.613256 -1.080878 1.816197
C -0.300096 -0.422131 0.328149
N -0.119710 -1.670011 1.112445
O 0.544641 -1.601091 2.139534
O -0.611471 -2.677803 0.658244
H 4.117151 0.037022 -0.823358
H 2.235712 -1.086501 1.713379
H 1.420950 1.818824 -1.524151
H -0.882779 2.628603 -1.990948
H -2.848314 1.443183 -0.946548