31
Extracted from mol_314.out
O -0.803662 4.279012 -0.981830
B -1.395888 3.047975 -0.914915
O -2.718683 2.956987 -1.233749
C -0.639456 1.732966 -0.489507
C 0.730981 1.726630 -0.188578
C 1.385154 0.547675 0.190059
C 2.845308 0.624123 0.492418
O 3.506068 1.636843 0.429185
O 3.366376 -0.566938 0.849761
C 4.759397 -0.579394 1.155628
C 0.659162 -0.651226 0.271426
C -0.710491 -0.686679 -0.022583
C -1.488582 -1.995157 0.065335
C -2.037237 -2.427845 -1.305885
C -2.607081 -1.929745 1.120229
C -1.336281 0.512756 -0.400202
H 0.129069 4.286690 -0.736844
H -3.090139 3.815580 -1.477053
H 1.340278 2.634323 -0.239492
H 5.004830 -1.614332 1.425875
H 5.355127 -0.260522 0.286225
H 4.983016 0.097831 1.994449
H 1.178096 -1.564938 0.568425
H -0.771930 -2.768914 0.392397
H -2.539747 -3.406724 -1.234204
H -2.774054 -1.703370 -1.691027
H -1.231079 -2.512736 -2.051875
H -3.372592 -1.183803 0.849226
H -2.209456 -1.656273 2.110524
H -3.112685 -2.905171 1.213426
H -2.403817 0.514378 -0.636482