17
Extracted from mol_1544.out
O -2.600526 -1.388315 0.759279
B -2.024657 -0.202104 0.411375
O -2.837039 0.849216 0.130286
C -0.434842 -0.193289 0.376263
C 0.246657 -1.380808 0.697978
C 1.639912 -1.469887 0.694445
C 2.398505 -0.343489 0.360256
Br 4.298227 -0.446579 0.350330
C 1.774837 0.859512 0.032954
C 0.369274 0.927040 0.042810
C -0.242079 2.183352 -0.300150
N -0.769166 3.182367 -0.575665
H -3.565560 -1.329130 0.762568
H -2.412745 1.683119 -0.116256
H -0.342708 -2.262223 0.959166
H 2.137007 -2.407790 0.949527
H 2.364899 1.739010 -0.227893