25
Extracted from mol_1745.out
O 0.808932 2.295199 -0.417588
B 0.158920 1.494925 0.469787
O -0.009408 1.928449 1.752131
C -0.484039 0.143509 -0.093753
C -1.880806 -0.014570 -0.234351
C -2.814603 1.042936 0.311981
F -2.469204 2.282629 -0.078664
F -4.088779 0.848815 -0.056189
F -2.800322 1.048546 1.671007
C -2.436232 -1.152865 -0.831510
C -1.607122 -2.169016 -1.309746
C -0.227434 -2.052382 -1.164844
C 0.326990 -0.919699 -0.549458
C 1.815569 -0.915776 -0.384239
O 2.580885 -1.623433 -0.994534
O 2.210813 -0.054789 0.574036
C 3.617401 0.080779 0.778450
H 1.091986 3.123384 -0.005715
H -0.590452 1.371101 2.283305
H -3.519844 -1.236802 -0.927407
H -2.040664 -3.051391 -1.786418
H 0.447901 -2.834795 -1.517343
H 4.065876 -0.889610 1.039163
H 3.738110 0.793546 1.603665
H 4.105527 0.461309 -0.131766