23
Extracted from mol_1836.out
O 3.030773 0.890499 -1.406609
B 2.326536 0.711206 -0.260872
O 2.733049 1.374987 0.868675
C 1.137244 -0.341257 -0.247754
C 1.400700 -1.714063 -0.089873
C 0.364138 -2.646433 -0.067027
C -0.957681 -2.219819 -0.209381
C -1.251335 -0.861099 -0.376326
C -2.702709 -0.453644 -0.555981
F -3.526778 -1.516020 -0.469914
F -2.929220 0.117215 -1.746518
F -3.105335 0.417061 0.393729
C -0.199737 0.083203 -0.387918
S -0.484278 1.841818 -0.688866
C -0.723189 2.470930 1.012637
H 3.738318 1.541944 -1.300457
H 2.228088 1.145784 1.656974
H 2.434941 -2.057998 0.007666
H 0.580725 -3.710999 0.053457
H -1.771505 -2.945639 -0.199588
H -0.963036 3.539379 0.907517
H -1.560354 1.959527 1.505619
H 0.200644 2.373420 1.600813