21
Extracted from mol_1807.out
O 0.304538 -2.616071 0.513620
B 0.244725 -1.719108 -0.527805
O 0.088909 -2.184956 -1.785664
C 0.336744 -0.149132 -0.294367
C 1.615689 0.463431 -0.362296
C 2.781993 -0.353584 -0.578595
N 3.716384 -1.024995 -0.739679
C 1.778029 1.852449 -0.216644
C 0.658860 2.657661 -0.013408
C -0.606889 2.077828 0.052709
C -0.777263 0.688353 -0.066368
C -2.215561 0.209130 0.016179
O -3.140462 0.968170 -0.218112
N -2.422907 -1.093144 0.371989
H 0.577500 -2.231025 1.355819
H 0.092020 -3.151903 -1.831653
H 2.778508 2.286757 -0.272950
H 0.774546 3.739308 0.089520
H -1.501210 2.688474 0.191387
H -1.698186 -1.703107 0.728407
H -3.385967 -1.404534 0.428292