29
Extracted from mol_230.out
O -2.512162 -1.456154 1.471407
B -1.358166 -1.959958 0.925420
O -1.086700 -3.304484 0.904436
C -0.257789 -0.993273 0.343676
C 1.055258 -1.492452 0.372045
C 2.155190 -0.734479 -0.051998
O 3.375248 -1.333019 0.038502
C 4.517426 -0.622667 -0.374936
C 1.934355 0.560934 -0.534098
C 0.627231 1.058232 -0.586902
C -0.484925 0.318728 -0.163088
C -1.879918 0.941154 -0.250414
C -2.125924 1.705894 -1.562187
C -2.166015 1.836833 0.969867
H -3.125565 -2.113999 1.821299
H -1.746508 -3.870120 1.322705
H 1.248369 -2.503125 0.737144
H 4.472325 -0.351135 -1.446370
H 5.377980 -1.287441 -0.215103
H 4.667499 0.301295 0.214477
H 2.758263 1.188523 -0.876847
H 0.483653 2.067527 -0.980302
H -2.607902 0.118857 -0.217332
H -1.904548 1.081292 -2.442709
H -1.513474 2.619723 -1.636789
H -3.180555 2.021516 -1.626336
H -3.187557 2.251911 0.922774
H -1.459859 2.683767 1.015600
H -2.075235 1.266121 1.906057