24
Extracted from mol_1790.out
O 3.613211 -1.685354 0.116201
B 3.067998 -0.430839 0.093915
O 3.801287 0.724024 0.172808
C 1.508528 -0.302364 -0.028365
C 0.700096 -1.445347 -0.106444
C -0.698780 -1.348625 -0.235894
S -1.597858 -2.879449 -0.337032
C -3.322631 -2.345049 -0.535425
C -1.288251 -0.079821 -0.279543
C -0.498920 1.077862 -0.185740
C -1.229599 2.397670 -0.242216
O -2.391726 2.475191 -0.608649
N -0.515147 3.502556 0.132907
C 0.890743 0.962616 -0.071786
H 4.573457 -1.730679 0.192669
H 4.756966 0.612241 0.238763
H 1.170886 -2.431959 -0.073528
H -3.461461 -1.750754 -1.450840
H -3.677667 -1.776120 0.336925
H -3.909434 -3.271031 -0.618964
H -2.363036 0.063053 -0.390772
H 0.359975 3.429923 0.633048
H -1.016174 4.382578 0.165935
H 1.527541 1.849679 -0.042315