22
Extracted from mol_1935.out
O 0.256076 2.242877 1.343752
B 0.578154 1.661110 0.127480
O 0.749871 2.357795 -1.034378
C 0.331452 0.093125 0.006584
C -0.942399 -0.506443 -0.137322
B -2.288010 0.323743 -0.041381
O -2.398674 1.506369 0.623950
O -3.397387 -0.199687 -0.639185
C -1.011870 -1.900610 -0.332755
C 0.132678 -2.706237 -0.365862
C 1.390465 -2.130439 -0.197415
C 1.448117 -0.747705 -0.017194
N 2.752778 -0.108255 0.196476
O 3.765939 -0.774811 0.135064
O 2.735984 1.101492 0.444292
H 0.435677 3.189993 1.409980
H 0.869908 3.310544 -0.940944
H -1.593456 1.789259 1.091685
H -4.173051 0.360503 -0.498565
H -1.995162 -2.360845 -0.459839
H 0.043039 -3.785240 -0.514390
H 2.309871 -2.716535 -0.200031