30
Extracted from mol_631.out
O 5.916745 -1.668612 -0.685551
B 5.283955 -0.584005 -0.152719
O 6.095856 0.372462 0.384725
C 3.710297 -0.441338 -0.155007
C 3.028047 0.263292 0.850622
C 1.636794 0.384633 0.859993
C 0.863928 -0.197010 -0.161246
O -0.480139 -0.125084 -0.230850
C -1.210357 0.587149 0.769697
C -2.678765 0.510227 0.440804
C -3.270424 1.464279 -0.400235
C -4.625076 1.377806 -0.731379
C -5.403589 0.332076 -0.224863
C -4.822542 -0.625406 0.612678
C -3.467314 -0.536081 0.941488
C 1.536062 -0.905007 -1.183552
I 0.415532 -1.793919 -2.753335
C 2.923103 -1.023383 -1.170709
H 5.309584 -2.366768 -0.955147
H 5.618646 1.167626 0.646356
H 3.589945 0.722238 1.671017
H 1.153093 0.932261 1.669374
H -0.872987 1.639024 0.794107
H -1.011448 0.141652 1.760955
H -2.663265 2.281751 -0.800183
H -5.074816 2.128878 -1.386201
H -6.464193 0.264370 -0.481599
H -5.426981 -1.444480 1.011343
H -3.014831 -1.288166 1.594570
H 3.405140 -1.570465 -1.985936