30
Extracted from mol_544.out
O -4.192317 -2.137091 -0.216684
B -2.867540 -2.245254 -0.513617
O -2.419719 -3.432485 -1.031378
C -1.931209 -1.005544 -0.252467
C -2.479865 0.277085 -0.072781
C -1.672940 1.408301 0.145553
B -2.326326 2.825973 0.357868
O -3.625456 3.007417 -0.008668
O -1.656410 3.892237 0.898671
C -0.279670 1.224891 0.178748
C 0.318724 -0.035928 0.008943
C 1.797378 -0.201314 0.053631
C 2.652566 0.752039 -0.532167
C 4.040220 0.597475 -0.489579
C 4.606798 -0.515271 0.139865
C 3.771729 -1.471456 0.726209
C 2.384195 -1.315831 0.683638
C -0.532290 -1.134530 -0.204254
H -4.679622 -2.941667 -0.439846
H -1.492208 -3.419319 -1.294327
H -3.565328 0.398305 -0.104139
H -3.935124 3.901675 0.188780
H -0.769042 3.679922 1.210186
H 0.378123 2.084012 0.351671
H 2.223297 1.613202 -1.050771
H 4.682662 1.347262 -0.959519
H 5.692728 -0.636583 0.173276
H 4.203371 -2.341280 1.229093
H 1.744935 -2.057519 1.169419
H -0.071660 -2.118724 -0.345354