24
Extracted from mol_1791.out
O -2.381662 1.754427 -1.279142
B -1.366971 1.978247 -0.397444
O -1.145377 3.262192 0.015177
C -0.425269 0.780851 0.037033
C -0.874021 -0.299216 0.830961
S -2.554765 -0.333856 1.477356
C -3.468245 -1.063396 0.066670
C 0.013726 -1.316040 1.211194
C 1.346514 -1.286968 0.794570
C 1.812789 -0.230780 -0.001623
C 3.240770 -0.105321 -0.471260
O 3.705632 0.962663 -0.832919
N 3.985402 -1.255175 -0.454351
C 0.923734 0.796482 -0.351604
H -2.865910 2.568100 -1.479859
H -0.413453 3.346745 0.638130
H -3.089848 -2.069291 -0.167325
H -4.516276 -1.140173 0.392992
H -3.401338 -0.406741 -0.811108
H -0.346161 -2.125118 1.851058
H 2.025272 -2.076134 1.128835
H 4.919636 -1.196646 -0.843818
H 3.550591 -2.166963 -0.407593
H 1.325227 1.622110 -0.945933