19
Extracted from mol_1434.out
O 3.056934 -1.461530 0.072358
B 2.508534 -0.284689 -0.324716
O 3.332808 0.657512 -0.868347
C 0.971075 0.119822 -0.226964
C 0.625013 1.389245 -0.738316
C -0.682258 1.867438 -0.720056
C -1.697225 1.077930 -0.180825
C -1.411069 -0.188650 0.341268
C -2.546257 -1.013280 0.921233
F -2.702562 -2.180975 0.276508
F -2.352917 -1.292375 2.220702
F -3.717786 -0.357738 0.832337
C -0.079549 -0.648156 0.309778
Cl 0.252477 -2.252372 0.979265
H 2.412407 -2.077344 0.449638
H 4.248312 0.349225 -0.901536
H 1.424231 2.002820 -1.158609
H -0.915874 2.855050 -1.124610
H -2.726292 1.438066 -0.159109