24
Extracted from mol_951.out
O 2.788637 -2.502645 0.008985
B 2.903817 -1.212365 -0.418786
O 4.123461 -0.794691 -0.874351
C 1.626437 -0.291127 -0.359039
C 1.633171 1.046481 -0.787692
C 0.479203 1.822336 -0.715644
C -0.727600 1.310725 -0.218317
C -1.888838 2.290652 -0.209029
O -1.736702 3.435202 -0.612376
N -3.082406 1.842345 0.259481
C -0.744219 -0.039774 0.217122
O -1.918144 -0.545465 0.703560
C -1.980239 -1.885186 1.154944
C 0.421426 -0.814606 0.141523
H 3.624056 -2.983132 -0.065728
H 4.146906 0.125912 -1.159913
H 2.544683 1.504417 -1.187222
H 0.467029 2.863447 -1.044244
H -3.853658 2.498315 0.264065
H -3.190270 0.891945 0.590675
H -3.011801 -2.049387 1.494926
H -1.749316 -2.598605 0.345175
H -1.290167 -2.062762 1.997712
H 0.414537 -1.852027 0.474172