23
Extracted from mol_186.out
O -2.962893 1.613540 0.179751
B -2.698485 0.278482 0.096345
O -3.754941 -0.578740 0.287516
C -1.257407 -0.255397 -0.262790
C -1.194206 -1.367321 -1.123258
C 0.023686 -1.903580 -1.542236
C 1.203485 -1.330610 -1.076670
C 1.200293 -0.234651 -0.185505
B 2.625319 0.247370 0.287820
O 3.664113 0.048064 -0.587281
O 2.819261 0.783657 1.535766
C -0.045777 0.318575 0.212456
C -0.117576 1.532897 1.115733
H -3.896536 1.774951 0.375209
H -3.492756 -1.507027 0.283072
H -2.123519 -1.811917 -1.497787
H 0.050688 -2.755905 -2.226755
H 2.163998 -1.737770 -1.402523
H 4.537298 0.295502 -0.260247
H 3.728950 1.031013 1.742585
H -0.517373 2.397848 0.562431
H -0.814109 1.364385 1.952651
H 0.858484 1.796633 1.533716