26
Extracted from mol_1738.out
O 0.705864 4.361698 0.628267
B -0.129834 3.447324 0.059873
O -1.285923 3.939977 -0.467528
C 0.215964 1.901450 0.013803
C 1.544436 1.459830 -0.085058
C 1.875958 0.090990 -0.133967
S 3.600497 -0.307834 -0.276347
C 3.616979 -2.123943 -0.313358
C 0.844356 -0.853363 -0.069481
C -0.491245 -0.433312 0.033146
C -1.538852 -1.499243 0.100915
O -1.307775 -2.686907 0.081274
O -2.784941 -0.995475 0.185125
C -3.847354 -1.945744 0.258363
C -0.802602 0.930971 0.068673
H 1.460207 3.961825 1.075441
H -1.800811 3.274177 -0.937350
H 2.355637 2.194066 -0.144066
H 3.216573 -2.555230 0.616257
H 4.675762 -2.404235 -0.408055
H 3.065491 -2.518195 -1.179818
H 1.034020 -1.926154 -0.096732
H -3.862739 -2.585604 -0.637464
H -4.774701 -1.363213 0.326776
H -3.735105 -2.591078 1.143176
H -1.849860 1.227220 0.158136