27
Extracted from mol_876.out
O -3.215287 0.956720 1.682311
B -2.960248 1.221416 0.369152
O -3.796760 2.098258 -0.269520
C -1.792633 0.501262 -0.409316
C -2.039261 0.050588 -1.724302
C -1.040161 -0.560410 -2.481777
C 0.251270 -0.708772 -1.971066
C 0.535714 -0.254688 -0.673298
N 1.807074 -0.299048 -0.080832
C 2.973252 -0.854040 -0.562836
O 3.058624 -1.442000 -1.625159
C 4.161786 -0.679915 0.373776
C -0.499887 0.317818 0.107380
O -0.149550 0.764298 1.366531
C -0.401369 -0.141473 2.443210
H -3.967212 1.471638 2.007434
H -3.528671 2.286302 -1.177167
H -3.039695 0.166936 -2.153460
H -1.259491 -0.918820 -3.491099
H 1.048113 -1.164794 -2.554849
H 1.845778 0.202436 0.801534
H 5.059847 -1.060471 -0.127904
H 4.005594 -1.245335 1.307718
H 4.312770 0.378549 0.642215
H -0.004282 0.332896 3.352612
H 0.114965 -1.105563 2.281905
H -1.480283 -0.313786 2.566808