18
Extracted from mol_709.out
O -3.084294 -0.705792 0.239032
B -2.259176 0.381079 0.257861
O -2.819577 1.628965 0.268583
C -0.690004 0.282865 0.268263
C 0.102803 1.448599 0.288155
C 1.494166 1.421002 0.297572
C 2.152949 0.182262 0.287045
O 3.508629 0.181876 0.296600
C 1.405039 -1.003701 0.267359
C 0.006243 -0.942560 0.258203
O -0.733983 -2.098469 0.238918
H -2.573635 -1.529959 0.232833
H -3.784537 1.577879 0.260870
H -0.410537 2.413529 0.296384
H 2.089803 2.335559 0.312906
H 3.836788 -0.726949 0.287682
H 1.914531 -1.974587 0.259187
H -0.155209 -2.871602 0.233036