30
Extracted from mol_609.out
O -2.540693 -3.513524 0.945180
B -3.540201 -2.612550 0.704886
O -4.825766 -3.034040 0.837183
C -3.084249 -1.149721 0.292322
C -3.920197 -0.061746 -0.003465
Cl -5.690382 -0.195858 0.048614
C -3.412884 1.194239 -0.357512
C -2.039270 1.390462 -0.423684
C -1.161846 0.329343 -0.135740
O 0.161980 0.611698 -0.225131
C 1.116448 -0.411162 0.051051
C 2.499064 0.165656 -0.116690
C 3.154596 0.772361 0.964852
C 4.422289 1.337922 0.803184
C 5.048802 1.304703 -0.446760
C 4.402997 0.704131 -1.532333
C 3.135396 0.139690 -1.366568
C -1.691482 -0.918118 0.215691
H -2.898628 -4.376937 1.190813
H -5.473552 -2.337703 0.650593
H -4.099749 2.012988 -0.579766
H -1.619329 2.360737 -0.697404
H 0.975930 -0.786027 1.081238
H 0.964826 -1.260528 -0.639755
H 2.666057 0.800860 1.943359
H 4.923411 1.804846 1.655383
H 6.041619 1.744617 -0.574268
H 4.889111 0.674270 -2.511216
H 2.631788 -0.328233 -2.217676
H -1.036088 -1.757924 0.443619