23
Extracted from mol_1154.out
O -4.434056 0.545334 -0.109336
B -3.215416 1.156789 -0.175350
O -3.193982 2.498588 -0.403166
C -1.951301 0.214807 0.026834
C -2.215955 -1.149065 0.271701
C -1.186757 -2.067874 0.465341
C 0.147187 -1.667347 0.422366
C 0.471434 -0.319029 0.180869
N 1.793819 0.143959 0.124669
C 2.974448 -0.561793 0.274857
O 3.034910 -1.755071 0.498577
C 4.215994 0.305780 0.120205
C -0.597576 0.588321 -0.010303
Cl -0.140669 2.290452 -0.314056
H -5.152306 1.178629 -0.239689
H -2.302224 2.869957 -0.440092
H -3.257484 -1.472407 0.306270
H -1.419791 -3.119071 0.654018
H 0.961296 -2.373169 0.571379
H 1.884599 1.137543 -0.057001
H 5.098112 -0.306201 0.343999
H 4.189535 1.172584 0.800779
H 4.296184 0.688282 -0.911097