20
Extracted from mol_1509.out
O -1.762669 -1.995733 -1.831366
B -1.509151 -1.480642 -0.594644
O -2.507194 -1.551016 0.305834
C -0.086316 -0.786817 -0.261295
C 0.017951 0.479786 0.381821
C -1.190351 1.193323 0.947014
O -2.003836 0.643352 1.682178
N -1.284575 2.515469 0.647416
C 1.260955 1.097463 0.595071
C 2.444255 0.469267 0.208870
C 2.386603 -0.779744 -0.404316
C 1.140333 -1.372599 -0.632797
Br 1.203049 -3.102650 -1.481896
H -0.989740 -2.043701 -2.405839
H -2.359805 -0.979037 1.085618
H -0.695845 2.950232 -0.050544
H -2.076298 3.031137 1.017027
H 1.302194 2.064545 1.101732
H 3.410915 0.943992 0.394911
H 3.299526 -1.296630 -0.704792