21
Extracted from mol_1687.out
O -1.931353 2.436288 -0.654225
B -1.687656 1.373084 0.169832
O -2.461616 1.201468 1.268368
C -0.450076 0.406573 -0.063855
C -0.541367 -0.990312 -0.240372
C -1.896158 -1.671151 -0.234736
F -1.861377 -2.856164 -0.869811
F -2.338673 -1.902657 1.009108
F -2.826470 -0.917294 -0.859171
C 0.603530 -1.780813 -0.421222
C 1.866402 -1.195203 -0.422761
C 1.988361 0.191996 -0.256370
C 3.332206 0.831007 -0.262889
O 4.372646 0.233912 -0.408959
C 0.836135 0.972614 -0.089125
H -1.369058 2.462718 -1.437401
H -3.174865 1.853186 1.322142
H 0.497094 -2.856862 -0.568959
H 2.771882 -1.791179 -0.558112
H 3.318822 1.943592 -0.118830
H 0.951589 2.055197 0.036868