32
Extracted from mol_252.out
O -3.412074 -0.744609 0.756225
B -2.682685 -1.726135 0.130251
O -3.385874 -2.780933 -0.380770
C -1.113327 -1.630514 0.060510
C -0.380854 -2.828841 -0.002097
C 1.011940 -2.825512 -0.062639
C 1.690090 -1.608656 -0.026813
C 1.016997 -0.378407 0.065659
C 1.833595 0.902786 0.214639
C 2.685403 1.194448 -1.032546
C 2.696020 0.866551 1.491185
C -0.396357 -0.402524 0.080722
N -1.151940 0.802863 0.142487
C -1.160833 1.781980 -0.833581
O -0.369114 1.827245 -1.755379
C -2.235900 2.840767 -0.626937
H -4.360123 -0.937892 0.744557
H -2.843014 -3.403349 -0.879282
H -0.908129 -3.789120 0.007526
H 1.567761 -3.764997 -0.120718
H 2.783139 -1.611253 -0.050907
H 1.127862 1.735871 0.329368
H 3.436778 0.404821 -1.204761
H 3.229537 2.146108 -0.911485
H 2.043743 1.275207 -1.920492
H 2.082373 0.686354 2.388690
H 3.463748 0.076327 1.446863
H 3.220751 1.827101 1.625517
H -2.008599 0.723149 0.683956
H -1.919198 3.544688 0.160654
H -2.365624 3.397985 -1.563261
H -3.196092 2.398488 -0.317238