25
Extracted from mol_128.out
O -1.338187 2.811324 1.287196
B -1.745583 2.048740 0.231732
O -2.692084 2.619744 -0.568201
C -1.118242 0.614896 -0.031302
C 0.264486 0.461898 0.181760
C 0.921593 -0.757822 -0.029694
C 2.388811 -0.934107 0.180957
O 2.986403 -1.971325 0.004871
O 2.992565 0.198584 0.595620
C 4.399693 0.118019 0.816979
C 0.173252 -1.865901 -0.451137
C -1.198041 -1.739472 -0.656753
C -1.860895 -0.514718 -0.463988
C -3.349001 -0.443170 -0.731402
H -0.730918 2.345827 1.873538
H -2.903902 2.094263 -1.346637
H 0.861274 1.316279 0.510280
H 4.926127 -0.167384 -0.106928
H 4.716713 1.116880 1.142582
H 4.632643 -0.628699 1.591852
H 0.684909 -2.818006 -0.607267
H -1.774582 -2.613639 -0.973621
H -3.552083 -0.143791 -1.777126
H -3.860883 0.278100 -0.078238
H -3.824069 -1.426521 -0.595075