24
Extracted from mol_1231.out
O -2.161329 -2.929357 0.315082
B -1.077367 -2.109305 0.425414
O 0.122824 -2.716017 0.709476
C -1.140616 -0.546858 0.239316
C -2.405189 0.073640 0.253523
C -2.582019 1.440835 0.076557
C -1.443456 2.240331 -0.130356
C -1.593203 3.658182 -0.325228
N -1.729602 4.800512 -0.482177
C -0.161611 1.673236 -0.143908
C 0.002513 0.287465 0.050083
N 1.273610 -0.298116 0.059229
C 2.509770 0.289867 -0.147470
O 2.678923 1.469503 -0.389787
C 3.665209 -0.695670 -0.046741
H -2.975147 -2.494005 0.036591
H 0.039630 -3.677046 0.785393
H -3.299016 -0.535397 0.425343
H -3.576064 1.890228 0.097267
H 0.717609 2.293046 -0.301427
H 1.273553 -1.294357 0.270087
H 3.681638 -1.185859 0.940642
H 3.574885 -1.484670 -0.811568
H 4.604454 -0.150191 -0.198378