30
Extracted from mol_499.out
O -5.045687 1.753660 0.406632
B -4.385593 0.674952 -0.105076
O -5.166049 -0.293480 -0.660200
C -2.806255 0.559452 -0.060897
C -1.976298 1.696024 -0.057382
C -0.589175 1.577917 -0.001394
C 0.043983 0.320592 0.043950
C 1.531015 0.296872 0.192115
C 2.353256 0.971439 -0.729527
C 3.743091 0.988557 -0.571240
C 4.333904 0.340087 0.516748
C 3.526839 -0.327613 1.444964
C 2.140210 -0.351869 1.283546
C -0.771688 -0.837179 0.001544
C -0.293484 -2.278451 -0.046120
O -0.981852 -3.179647 0.406599
N 0.881381 -2.524524 -0.691011
C -2.167526 -0.688942 -0.027147
H -4.467776 2.362773 0.879275
H -4.658496 -1.002853 -1.070488
H -2.415899 2.698613 -0.097622
H 0.029702 2.478089 0.038281
H 1.897414 1.478325 -1.584440
H 4.364916 1.512133 -1.302410
H 5.419576 0.356429 0.643546
H 3.980082 -0.829715 2.303934
H 1.515902 -0.867768 2.017517
H 1.215836 -3.481289 -0.697582
H 1.498479 -1.787665 -1.004578
H -2.749807 -1.614923 -0.014803