17
Extracted from mol_1344.out
O 3.308386 -0.173080 -0.244984
B 2.224773 0.633980 -0.141326
O 2.464786 1.973518 -0.169134
C 0.739624 0.060537 -0.009097
C -0.383294 0.878310 -0.216084
C -1.698801 0.392739 -0.108008
C -2.813382 1.271523 -0.330025
N -3.712080 1.985743 -0.505136
C -1.914251 -0.960218 0.218196
C -0.824457 -1.801625 0.421994
C 0.460975 -1.278931 0.298279
F 1.490291 -2.133334 0.490501
H 3.093165 -1.111615 -0.187808
H 1.697679 2.533371 -0.012399
H -0.248726 1.930021 -0.483537
H -2.932286 -1.344461 0.306614
H -0.952404 -2.856480 0.671956