32
Extracted from mol_633.out
O -2.194698 -3.685089 0.377152
B -1.371498 -2.600610 0.266578
O -0.025420 -2.783865 0.279101
C -2.062510 -1.181288 0.130006
C -3.463602 -1.093217 0.128139
C -4.127431 0.130814 0.011777
C -3.379621 1.307599 -0.106622
C -4.061376 2.620820 -0.231785
O -3.492765 3.684109 -0.339309
C -1.975116 1.260132 -0.108741
C -1.327258 0.028933 0.007907
O 0.037011 -0.090674 0.012154
C 0.860910 1.074798 -0.106733
C 2.304452 0.644874 -0.077193
C 2.960741 0.275006 -1.261358
C 4.288210 -0.160254 -1.232015
C 4.974262 -0.231727 -0.015210
C 4.328891 0.133181 1.170614
C 3.000909 0.567466 1.138495
H -1.688573 -4.504741 0.456068
H 0.437643 -1.933491 0.194269
H -4.036355 -2.018912 0.221548
H -5.220464 0.176001 0.012899
H -5.181372 2.564753 -0.220265
H -1.441030 2.205445 -0.203539
H 0.640037 1.765806 0.725284
H 0.625948 1.593080 -1.052761
H 2.426770 0.331029 -2.214592
H 4.789467 -0.442790 -2.161504
H 6.013620 -0.569964 0.008398
H 4.861836 0.080462 2.123622
H 2.498382 0.852315 2.067612