32
Extracted from mol_480.out
O -2.633108 3.373010 -0.646323
B -2.087093 2.240446 -0.110298
O -2.925223 1.393052 0.551545
C -0.519261 2.060666 -0.273116
C 0.214870 3.232737 -0.542223
C 1.607188 3.226699 -0.619785
C 2.292151 2.027923 -0.450315
C 1.597406 0.827369 -0.224365
C 2.474009 -0.389241 -0.125454
O 3.647714 -0.345699 0.167564
O 1.849076 -1.534433 -0.446345
C 2.633885 -2.724482 -0.384557
C 0.183696 0.836127 -0.117285
C -0.583251 -0.416929 0.190452
C -0.594623 -0.948198 1.492571
C -1.331265 -2.100877 1.787710
C -2.065144 -2.741490 0.784808
C -2.063993 -2.218539 -0.513098
C -1.334053 -1.064205 -0.806119
H -3.583565 3.418426 -0.475316
H -2.491804 0.597263 0.888521
H -0.333174 4.167924 -0.678220
H 2.156274 4.152121 -0.812198
H 3.381907 1.986505 -0.500662
H 1.964581 -3.544840 -0.672259
H 3.488917 -2.664977 -1.075358
H 3.021898 -2.886308 0.632906
H -0.020765 -0.450753 2.279403
H -1.331528 -2.497792 2.806530
H -2.640828 -3.641981 1.014525
H -2.638832 -2.710827 -1.302213
H -1.336059 -0.658692 -1.821026