18
Extracted from mol_1572.out
O 2.706064 1.254272 -0.218587
B 2.073597 0.143656 0.199220
O 2.823966 -0.865019 0.747723
C 0.493137 -0.168641 0.138248
C 0.153716 -1.428161 0.661790
C -1.161324 -1.891446 0.703658
C -2.198278 -1.098333 0.216819
C -1.901412 0.158851 -0.311024
I -3.626609 1.239474 -1.010043
C -0.571688 0.652926 -0.366423
C -0.363580 2.001508 -0.951107
O 0.687649 2.603824 -1.089066
H 2.078455 1.912721 -0.596020
H 3.758871 -0.620196 0.757303
H 0.956651 -2.057742 1.046596
H -1.385509 -2.878123 1.118626
H -3.228665 -1.455857 0.248247
H -1.295043 2.496285 -1.295962