22
Extracted from mol_1671.out
O -3.077482 1.450939 1.444948
B -2.742538 0.339108 0.716945
O -3.711495 -0.596320 0.512865
C -1.275130 0.114004 0.178612
C -0.205595 0.511310 1.002470
C 1.132595 0.325902 0.646180
C 1.456972 -0.266325 -0.586534
S 3.104304 -0.558914 -1.172991
C 4.157865 0.061747 0.170196
C 0.407902 -0.659634 -1.432323
C -0.930031 -0.481181 -1.063372
C -1.967320 -0.908029 -2.053874
O -1.704819 -1.412819 -3.123551
H -2.374667 2.110040 1.489983
H -4.554766 -0.334909 0.909440
H -0.414556 0.964557 1.977576
H 1.912893 0.645131 1.338394
H 3.995325 -0.492704 1.106808
H 5.190427 -0.108857 -0.166346
H 4.014717 1.139796 0.338786
H 0.608851 -1.114064 -2.406238
H -3.023454 -0.728777 -1.749700