20
Extracted from mol_896.out
O 2.396869 -1.358989 -0.110452
B 2.024474 -0.120419 -0.532578
O 2.874363 0.613847 -1.307306
C 0.635122 0.530435 -0.141446
C 0.400413 1.895189 -0.390643
C -0.793121 2.510892 -0.011166
C -1.781487 1.771616 0.643393
C -1.571487 0.415060 0.901860
Cl -2.796639 -0.491690 1.763700
C -0.375971 -0.210942 0.505101
O -0.161331 -1.545988 0.783245
C -0.817372 -2.481814 -0.075946
H 1.691271 -1.737462 0.444288
H 3.702973 0.142927 -1.469041
H 1.179998 2.473618 -0.891961
H -0.958201 3.572237 -0.213349
H -2.716452 2.234815 0.964899
H -0.545530 -3.483808 0.284301
H -1.911150 -2.366969 -0.027628
H -0.476738 -2.362556 -1.119272