34
Extracted from mol_568.out
O -2.492253 2.923648 2.775448
B -3.221600 2.174428 1.902491
O -4.564326 2.432973 1.799695
C -2.494310 1.064139 1.054504
C -3.226386 0.021736 0.440211
C -2.564821 -0.947242 -0.320795
O -3.173764 -1.991885 -0.942809
C -4.569849 -2.142103 -0.832296
C -1.167715 -0.886956 -0.486408
C -0.442099 0.140219 0.122359
O 0.905662 0.279406 0.020180
C 1.654077 -0.668000 -0.713436
C 3.126961 -0.331228 -0.646836
C 4.000028 -0.872110 -1.603257
C 5.371983 -0.616216 -1.541519
C 5.888750 0.193021 -0.524194
C 5.023583 0.740639 0.427264
C 3.650700 0.479535 0.369076
C -1.107524 1.111050 0.895436
H -3.034417 3.592523 3.215075
H -4.998928 1.932029 1.099829
H -4.307190 -0.041423 0.581406
H -4.888451 -2.282705 0.217036
H -4.835767 -3.040186 -1.406813
H -5.113267 -1.276151 -1.253863
H -0.700179 -1.661576 -1.092746
H 1.482487 -1.682966 -0.300837
H 1.320968 -0.690979 -1.768822
H 3.602523 -1.498556 -2.408429
H 6.038901 -1.044211 -2.294968
H 6.961469 0.398946 -0.476825
H 5.418664 1.378382 1.222934
H 2.973639 0.911403 1.107702
H -0.517547 1.900416 1.364208