29
Extracted from mol_326.out
O 4.015437 -1.402707 1.558056
B 3.484068 -0.865915 0.411901
O 4.341202 -0.609332 -0.591768
C 1.896125 -0.643165 0.328759
C 1.095885 -1.553550 1.045241
C -0.299669 -1.495955 1.056172
C -0.981564 -0.499010 0.348901
C -2.503682 -0.435373 0.340584
C -3.032087 0.882377 0.934247
C -3.079372 -0.686688 -1.064703
C -0.203574 0.425868 -0.363455
C 1.199961 0.364660 -0.391944
C 1.921034 1.373067 -1.252131
O 2.875913 1.087470 -1.970755
N 1.419641 2.638496 -1.234449
H 3.373811 -1.486878 2.270896
H 3.900089 -0.134176 -1.328492
H 1.581103 -2.359590 1.605027
H -0.867147 -2.243620 1.618964
H -2.856409 -1.253744 0.992305
H -2.740135 1.749053 0.317487
H -4.133219 0.871797 0.985276
H -2.645806 1.048863 1.952398
H -2.732325 -1.648354 -1.474255
H -2.778397 0.105269 -1.770798
H -4.181321 -0.705108 -1.036439
H -0.707173 1.200453 -0.947818
H 0.745421 2.937435 -0.543062
H 1.892198 3.338359 -1.796141