24
Extracted from mol_1123.out
O -4.377974 0.972509 -0.840820
B -3.137578 0.668322 -1.310401
O -2.954992 0.773098 -2.653908
C -1.963570 0.214680 -0.340821
C -2.210322 -0.603147 0.780106
C -1.175877 -1.007297 1.619539
C 0.135518 -0.608440 1.345642
N 1.196421 -1.072389 2.259309
O 2.336170 -1.151558 1.827675
O 0.860466 -1.364220 3.395193
C 0.415187 0.221596 0.245566
O 1.675609 0.708972 0.013241
C 2.522948 -0.022834 -0.804276
O 2.137254 -0.944251 -1.461960
C 3.917626 0.522150 -0.714044
C -0.639424 0.616679 -0.580279
H -4.438750 0.977632 0.121055
H -2.099075 0.448694 -2.956836
H -3.227121 -0.943937 0.996615
H -1.354860 -1.634784 2.493096
H 3.911949 1.619879 -0.782507
H 4.538758 0.084095 -1.504544
H 4.325489 0.251890 0.273148
H -0.393848 1.272662 -1.419786