26
Extracted from mol_469.out
O 5.010378 0.992533 -0.699697
B 4.311976 -0.032103 -0.133830
O 5.056124 -1.048900 0.384858
C 2.728500 -0.036515 -0.081796
C 1.986584 1.152959 0.032783
C 0.594373 1.133884 0.081398
C -0.138907 -0.068474 0.006351
C -1.629094 0.004981 0.050672
C -2.415316 -0.426292 -1.032182
C -3.806062 -0.302596 -0.995055
C -4.435099 0.249816 0.125435
C -3.663608 0.685117 1.206654
C -2.271237 0.568895 1.166922
C 0.607145 -1.259878 -0.100190
I -0.326950 -3.183551 -0.121965
C 2.005382 -1.241093 -0.141654
H 4.447360 1.637426 -1.142320
H 4.531343 -1.701078 0.862495
H 2.502427 2.116609 0.098701
H 0.039746 2.072088 0.166347
H -1.931755 -0.851479 -1.914722
H -4.401449 -0.637341 -1.848753
H -5.524055 0.342385 0.154377
H -4.146452 1.116653 2.087609
H -1.672031 0.906300 2.016853
H 2.540677 -2.190349 -0.229293