19
Extracted from mol_1617.out
O 3.492667 0.703070 -0.274691
B 2.535464 -0.259011 -0.167326
O 2.932482 -1.566354 -0.145570
C 1.032108 0.211009 -0.073832
C 0.715576 1.580292 -0.068142
C -0.605879 2.019792 0.017477
C -1.654561 1.095969 0.098986
I -3.622082 1.901572 0.231824
C -1.375237 -0.284308 0.092413
C -2.454363 -1.348350 0.173525
F -3.319241 -1.265080 -0.849961
F -1.927096 -2.587927 0.138264
F -3.163081 -1.260179 1.310335
C -0.037218 -0.693752 0.006595
H 4.382959 0.329438 -0.323196
H 2.220942 -2.210743 -0.059455
H 1.521587 2.315653 -0.131310
H -0.825335 3.088948 0.021547
H 0.150307 -1.770037 0.002518