20
Extracted from mol_1506.out
O 2.858522 -1.600774 -1.284227
B 2.650323 -0.613699 -0.376427
O 3.760846 -0.149585 0.264258
C 1.234845 0.073804 -0.107848
C 1.222647 1.481326 -0.045703
C 0.048764 2.199503 0.184183
C -1.147664 1.513484 0.360710
C -1.209219 0.109416 0.282194
C -2.606593 -0.454226 0.512914
O -3.365720 0.109797 1.282390
N -2.990644 -1.524192 -0.232772
C -0.003329 -0.579817 0.055140
Br 0.032418 -2.519950 0.050478
H 2.044784 -1.938017 -1.677274
H 3.564838 0.504823 0.943961
H 2.163010 2.023783 -0.185011
H 0.068688 3.290980 0.234090
H -2.077805 2.043005 0.575417
H -2.341252 -2.057063 -0.795792
H -3.907458 -1.912598 -0.040678