30
Extracted from mol_625.out
O -2.012732 2.658028 -1.362123
B -1.838715 1.989714 -0.184359
O -1.102634 2.585714 0.792921
C -2.448555 0.548602 0.093705
C -3.802978 0.267825 0.296938
I -5.242959 1.856086 0.231318
C -4.284834 -1.020843 0.563191
C -3.370085 -2.071439 0.617588
C -2.004594 -1.851186 0.408787
C -1.554278 -0.550159 0.147433
O -0.254798 -0.234294 -0.094547
C 0.769742 -1.189587 0.114633
C 2.118446 -0.515257 0.009203
C 2.286941 0.824513 0.390685
C 3.552337 1.416073 0.336435
C 4.661299 0.679401 -0.092467
C 4.498067 -0.655200 -0.475523
C 3.231983 -1.246077 -0.429163
H -2.576747 2.194102 -1.992315
H -0.789964 3.459193 0.517747
H -5.348422 -1.200000 0.725103
H -3.726302 -3.084930 0.821930
H -1.311340 -2.691563 0.443375
H 0.692466 -2.009992 -0.623726
H 0.651296 -1.641657 1.119507
H 1.418189 1.400435 0.716997
H 3.673336 2.462035 0.631902
H 5.649372 1.145742 -0.133187
H 5.357125 -1.237121 -0.820295
H 3.109337 -2.288155 -0.741211