33
Extracted from mol_672.out
O -2.201068 -3.363666 1.336000
B -1.530823 -2.182977 1.210262
O -0.315220 -2.034715 1.807582
C -2.226211 -1.021712 0.391841
C -3.600720 -1.091719 0.097249
C -4.266837 -0.041534 -0.534705
C -3.567659 1.119405 -0.871570
C -2.196862 1.222566 -0.606265
C -1.461423 2.505807 -0.920592
F -0.444515 2.315088 -1.797144
F -2.275908 3.418833 -1.479300
F -0.929392 3.067433 0.174000
C -1.532344 0.142752 0.008215
O -0.182614 0.249884 0.279037
C 0.710509 -0.314582 -0.718069
C 2.130590 -0.063196 -0.289227
C 2.741017 1.172785 -0.556148
C 4.049840 1.420730 -0.136795
C 4.762476 0.436239 0.557254
C 4.160157 -0.794642 0.833754
C 2.849127 -1.041420 0.414555
H -1.714957 -3.995065 1.883588
H 0.031283 -1.137391 1.659513
H -4.149148 -1.991954 0.386087
H -5.335189 -0.114692 -0.751919
H -4.083492 1.958573 -1.340734
H 0.497725 0.163211 -1.685715
H 0.510835 -1.395565 -0.808890
H 2.179478 1.942611 -1.091918
H 4.516776 2.385538 -0.352270
H 5.788099 0.629888 0.883140
H 4.711727 -1.565678 1.378343
H 2.374742 -2.000834 0.640845