16
Extracted from mol_1270.out
O 2.878697 0.952177 0.262459
B 2.027875 -0.019595 -0.162738
O 2.560890 -1.124542 -0.762598
C 0.448079 0.007169 -0.028530
C -0.264707 -1.100491 -0.541401
C -1.653498 -1.201841 -0.489227
C -2.370335 -0.160891 0.096644
F -3.704434 -0.230884 0.159624
C -1.733140 0.959567 0.622340
C -0.339547 1.020847 0.549247
Cl 0.389779 2.479079 1.241451
H 2.427426 1.702305 0.676079
H 3.524658 -1.070057 -0.810206
H 0.312222 -1.907594 -0.997657
H -2.186322 -2.065713 -0.891313
H -2.317642 1.760463 1.075825