20
Extracted from mol_1519.out
O -2.505052 -2.071226 -0.473364
B -1.761837 -1.400228 0.453934
O -1.665611 -1.915824 1.706253
C -0.983838 -0.049818 0.134420
C 0.436190 0.010413 0.184190
S 1.295655 -1.482522 0.655431
C 3.004248 -1.175934 0.113769
C 1.111692 1.201743 -0.124473
C 0.394853 2.346328 -0.480140
C -0.998202 2.325313 -0.532213
C -1.652448 1.128416 -0.226287
Br -3.576795 1.136821 -0.321480
H -2.584218 -1.607565 -1.315744
H -2.162131 -2.741855 1.794585
H 3.051226 -0.904189 -0.951520
H 3.502357 -0.406046 0.722091
H 3.529957 -2.130263 0.262958
H 2.199758 1.251982 -0.082042
H 0.931558 3.269520 -0.715456
H -1.567365 3.214935 -0.804911