20
Extracted from mol_1702.out
O -1.304841 2.848339 0.279733
B -1.541092 1.530507 0.547259
O -2.674857 1.202751 1.221283
C -0.506481 0.397026 0.143068
C 0.860051 0.690248 0.300666
C 1.827694 -0.268507 0.006988
N 3.257373 0.076931 0.194581
O 4.080236 -0.788816 -0.049930
O 3.518073 1.205718 0.578633
C 1.494305 -1.540221 -0.461655
C 0.146802 -1.839040 -0.636229
C -0.848726 -0.892132 -0.338159
C -2.271393 -1.296551 -0.586367
O -2.583348 -2.391169 -0.997180
H -0.516771 3.020660 -0.249340
H -3.210389 1.979824 1.437645
H 1.199225 1.658434 0.673196
H 2.284187 -2.258860 -0.680345
H -0.170314 -2.814753 -1.011172
H -3.039732 -0.520387 -0.372674