23
Extracted from mol_1803.out
O 4.101993 0.513553 0.706746
B 3.237723 -0.309926 0.053869
O 3.743880 -1.408306 -0.583513
C 1.704942 0.065551 0.073760
C 1.285558 1.335523 0.507956
C -0.063060 1.683571 0.515129
C -1.057827 0.771681 0.129104
C -2.478255 1.315796 0.186520
O -2.711220 2.450244 -0.191752
N -3.426044 0.515300 0.743171
C -0.652984 -0.504463 -0.323327
C -1.635136 -1.543487 -0.821569
F -2.327987 -2.116336 0.202703
F -2.542738 -1.029127 -1.662986
F -1.024712 -2.552587 -1.462572
C 0.709839 -0.830190 -0.346032
H 5.019551 0.219401 0.626981
H 3.098951 -1.920906 -1.083988
H 2.034308 2.061121 0.835054
H -0.379123 2.682948 0.820817
H -4.379512 0.859923 0.752178
H -3.243914 -0.436461 1.031650
H 0.985767 -1.822826 -0.709898