25
Extracted from mol_286.out
O 4.580284 -0.551369 -0.239441
B 3.745384 0.440379 0.190045
O 4.348196 1.580520 0.609166
C 2.166281 0.236942 0.112986
C 1.654127 -0.545529 -0.943688
C 0.289707 -0.775257 -1.124075
C -0.652788 -0.232567 -0.239661
C -2.144251 -0.481046 -0.425662
C -2.911951 0.821935 -0.711159
C -2.754039 -1.242572 0.764463
C -0.173573 0.553236 0.821282
C 1.194863 0.778899 0.974744
Br 1.707694 1.886409 2.470550
H 4.121298 -1.371908 -0.449044
H 3.727256 2.234402 0.956014
H 2.354386 -0.978103 -1.665862
H -0.049266 -1.384655 -1.966802
H -2.245929 -1.125043 -1.316662
H -2.496007 1.349995 -1.583679
H -2.871612 1.511180 0.148718
H -3.974120 0.608946 -0.915440
H -3.815020 -1.473345 0.573874
H -2.705737 -0.647821 1.691817
H -2.226293 -2.191845 0.947853
H -0.868887 0.998219 1.535671