16
Extracted from mol_1291.out
O 2.844385 0.843397 -0.864113
B 2.158048 -0.085646 -0.141640
O 2.910517 -1.034504 0.483471
C 0.577142 -0.067223 -0.034149
C -0.167261 -1.257058 0.084945
C -1.559352 -1.242303 0.171352
C -2.233521 -0.021570 0.150712
F -3.564362 -0.018099 0.237582
C -1.528679 1.181675 0.040219
I -2.581751 3.019193 0.022984
C -0.134576 1.147835 -0.055946
H 2.274672 1.427032 -1.377375
H 2.398292 -1.603317 1.068875
H 0.345670 -2.224017 0.093154
H -2.144573 -2.161119 0.253032
H 0.405350 2.095722 -0.133106