26
Extracted from mol_349.out
O -0.119288 1.662660 -2.548183
B -0.017133 1.776236 -1.197267
O 0.606289 2.889525 -0.697030
C -0.695889 0.679163 -0.275015
C -2.061200 0.894108 0.002134
C -2.802775 0.035724 0.811016
C -2.170725 -1.086858 1.368953
C -2.903580 -1.993434 2.209852
N -3.495880 -2.727036 2.888193
C -0.810938 -1.320428 1.096805
C -0.059262 -0.459562 0.285207
C 1.409716 -0.810679 0.040097
C 1.711063 -1.095234 -1.442326
C 2.379322 0.229688 0.630753
H 0.284962 2.412444 -3.008440
H 0.631749 2.920857 0.266871
H -2.566344 1.761748 -0.433816
H -3.859616 0.225623 1.009088
H -0.333498 -2.202031 1.531668
H 1.590470 -1.751975 0.586625
H 1.565427 -0.205557 -2.073721
H 2.755043 -1.427955 -1.563470
H 1.054013 -1.887197 -1.835203
H 2.304295 1.199485 0.115306
H 3.421222 -0.115042 0.529457
H 2.182558 0.395730 1.702446