25
Extracted from mol_1746.out
O 3.696746 1.553945 0.613966
B 2.913147 0.472883 0.888048
O 3.268276 -0.324822 1.929977
C 1.699242 0.234302 -0.118218
C 1.989630 0.501658 -1.468138
C 1.041335 0.314095 -2.474111
C -0.245875 -0.094655 -2.138315
C -0.596837 -0.315059 -0.797888
C -2.049234 -0.655403 -0.566509
O -2.585878 -1.650271 -0.984810
O -2.689683 0.336250 0.070681
C -4.074320 0.117198 0.350528
C 0.386484 -0.192873 0.204113
C 0.084607 -0.556878 1.644489
F 0.366271 0.443923 2.492577
F 0.852831 -1.621870 2.036966
F -1.177048 -0.934245 1.868278
H 4.433244 1.622856 1.237564
H 2.674104 -1.069705 2.086112
H 2.987964 0.860829 -1.727012
H 1.301568 0.500444 -3.519292
H -1.005205 -0.230828 -2.911840
H -4.199193 -0.744753 1.024013
H -4.636234 -0.076741 -0.575586
H -4.435942 1.032909 0.834407