32
Extracted from mol_414.out
O -3.924727 -0.494055 -0.573840
B -3.415657 -0.874645 0.627440
O -4.261367 -1.017214 1.687595
C -1.891069 -1.243299 0.855176
C -1.594652 -2.483679 1.451889
C -0.278775 -2.919674 1.609381
C 0.774934 -2.108979 1.187560
C 0.538480 -0.847104 0.614021
C 1.688229 0.004324 0.190936
C 2.702175 -0.538787 -0.619563
C 3.807237 0.228186 -0.999643
C 3.922025 1.554201 -0.573448
C 2.923017 2.106515 0.235757
C 1.816526 1.341685 0.612744
C -0.804496 -0.449867 0.459198
O -1.021495 0.846086 -0.041926
C -1.351426 1.054547 -1.337828
O -1.695301 0.171067 -2.088142
C -1.241436 2.511896 -1.692330
H -3.258821 -0.477625 -1.285265
H -5.176139 -0.830495 1.433357
H -2.420088 -3.112924 1.794702
H -0.071048 -3.888147 2.071707
H 1.808083 -2.437024 1.326295
H 2.613007 -1.570963 -0.968206
H 4.579465 -0.212875 -1.635776
H 4.786250 2.155182 -0.868770
H 3.009336 3.139922 0.583041
H 1.046537 1.778621 1.251371
H -1.644970 2.679925 -2.697935
H -0.182380 2.813697 -1.657147
H -1.781450 3.121501 -0.952348