26
Extracted from mol_1723.out
O 2.681626 -2.574414 -0.111521
B 1.349054 -2.727928 0.011209
O 0.853477 -3.995313 0.178539
C 0.229449 -1.574915 -0.036618
C -1.093584 -2.066336 -0.069556
C -2.211274 -1.237549 -0.115693
C -2.054799 0.153755 -0.103169
C -3.298720 1.006944 -0.157498
O -4.370211 0.547872 -0.513612
N -3.149516 2.319911 0.201402
C -0.759884 0.675641 -0.077328
C 0.377655 -0.155867 -0.049432
C 1.706767 0.533980 -0.047023
O 2.802064 0.011015 -0.172857
O 1.608501 1.863216 0.103261
C 2.830348 2.605449 0.086956
H 2.929729 -1.627660 -0.201765
H 1.572803 -4.640586 0.187090
H -1.234791 -3.147874 -0.059547
H -3.222682 -1.647412 -0.160093
H -3.994392 2.878814 0.240168
H -2.346036 2.641499 0.724164
H -0.603379 1.752763 -0.109829
H 2.546421 3.656742 0.219221
H 3.357573 2.467355 -0.868938
H 3.493800 2.280894 0.902470