29
Extracted from mol_17.out
O -4.732483 -0.047953 0.576738
B -3.893548 0.659035 -0.233573
O -4.466906 1.580122 -1.074066
C -2.334243 0.437391 -0.172779
C -1.496646 1.525352 -0.487537
C -0.105793 1.438983 -0.453197
C 0.515395 0.228161 -0.104818
C 1.997547 0.103725 -0.067718
C 2.802816 1.168078 0.382467
C 4.194321 1.053848 0.417613
C 4.815445 -0.127967 0.001646
C 4.030688 -1.194034 -0.449031
C 2.639095 -1.079556 -0.482512
C -0.313916 -0.864790 0.208291
C -1.713167 -0.787305 0.190822
C -2.516897 -2.013128 0.562241
H -5.654953 0.207093 0.435829
H -3.838990 1.993552 -1.678030
H -1.944312 2.487933 -0.760170
H 0.499311 2.307978 -0.722334
H 2.330280 2.088713 0.733604
H 4.796775 1.891349 0.780121
H 5.904668 -0.217626 0.028662
H 4.505286 -2.120179 -0.784921
H 2.040676 -1.912234 -0.860045
H 0.150630 -1.809386 0.504011
H -3.088273 -1.849556 1.489169
H -1.863110 -2.886367 0.705395
H -3.259694 -2.261229 -0.212226