18
Extracted from mol_1546.out
O -2.978925 -1.456315 -0.463446
B -2.436063 -0.353511 0.106081
O -3.306058 0.498012 0.718118
C -0.887633 0.033145 0.003517
C -0.586363 1.365262 -0.344643
C 0.725229 1.827651 -0.469537
C 1.781495 0.951882 -0.239814
C 1.514215 -0.382467 0.078842
N 2.702747 -1.248235 0.259440
O 2.668528 -2.367410 -0.215860
O 3.652319 -0.752635 0.844330
C 0.194991 -0.846992 0.207691
Br -0.171030 -2.642006 0.754101
H -2.328847 -2.062743 -0.838540
H -2.878862 1.235389 1.167746
H -1.412116 2.059612 -0.526994
H 0.924635 2.867342 -0.738915
H 2.821739 1.274020 -0.302117