26
Extracted from mol_465.out
O -4.650028 0.215665 1.281631
B -3.494249 0.787898 0.839719
O -3.351397 2.118909 1.096350
C -2.385543 -0.044083 0.073891
C -2.718106 -1.137908 -0.745379
C -1.735898 -1.860306 -1.423369
C -0.387139 -1.512072 -1.281070
I 1.023986 -2.634349 -2.424469
C 0.004097 -0.436406 -0.458400
C 1.417702 -0.009601 -0.233979
C 1.832902 1.278489 -0.613569
C 3.140316 1.708825 -0.369165
C 4.050352 0.860440 0.267661
C 3.645650 -0.420370 0.657845
C 2.341335 -0.853024 0.407978
C -1.023292 0.277471 0.190283
H -4.667076 -0.741527 1.171329
H -2.568290 2.502886 0.686501
H -3.765623 -1.426757 -0.882268
H -2.018693 -2.689894 -2.074074
H 1.126331 1.942785 -1.118500
H 3.448346 2.710701 -0.680270
H 5.072506 1.196549 0.461175
H 4.349108 -1.087397 1.163404
H 2.030839 -1.852095 0.722860
H -0.718139 1.105170 0.839094