25
Extracted from mol_1743.out
O 0.772946 3.112013 1.230089
B 0.584321 2.521465 0.012553
O 0.973452 3.049219 -1.186124
C -0.370077 1.250228 -0.033130
C -1.759595 1.390726 -0.165973
C -2.602759 0.278090 -0.205645
C -2.065595 -1.012151 -0.112002
C -2.974691 -2.216369 -0.101231
F -3.316497 -2.569964 1.153941
F -4.120665 -1.985011 -0.766751
F -2.390239 -3.290404 -0.661903
C -0.685523 -1.181478 0.016545
C 0.150425 -0.057736 0.056473
C 1.629259 -0.184285 0.188124
O 2.377854 0.772407 0.217548
O 2.059561 -1.450722 0.271771
C 3.469854 -1.639389 0.399139
H 1.365353 3.873780 1.231744
H 1.560787 3.812807 -1.129205
H -2.199050 2.389006 -0.243837
H -3.681336 0.408664 -0.316448
H -0.252835 -2.180268 0.079774
H 3.846986 -1.151183 1.310721
H 3.629121 -2.723434 0.452242
H 3.998942 -1.216009 -0.468248