16
Extracted from mol_1478.out
O -2.166915 -1.884901 -0.954022
B -1.973317 -0.822700 -0.121630
O -3.036082 -0.454805 0.633895
C -0.533840 -0.135211 -0.028571
C 0.589540 -0.982785 -0.148520
C 1.894898 -0.494624 -0.063905
I 3.537607 -1.831854 -0.243097
C 2.127020 0.868286 0.137456
C 1.036761 1.732657 0.261904
C -0.264329 1.228326 0.186928
Br -1.691921 2.502479 0.380328
H -1.420220 -2.066545 -1.535068
H -2.875726 0.332297 1.170095
H 0.430049 -2.054043 -0.295600
H 3.142627 1.263543 0.200540
H 1.203848 2.799880 0.419266