24
Extracted from mol_1779.out
O -2.739105 -2.400477 1.563030
B -2.529115 -1.098513 1.189614
O -3.586201 -0.270061 1.243172
C -1.041976 -0.645150 0.779305
C 0.016135 -1.281643 1.460778
C 1.356692 -0.982972 1.225571
C 1.704376 -0.035543 0.255494
C 3.173017 0.258583 0.061954
O 4.004261 -0.100406 0.877590
N 3.513856 0.958045 -1.064301
C 0.675531 0.612671 -0.439975
C -0.678130 0.330471 -0.186049
C -1.710956 1.146788 -0.923290
O -2.708231 1.614892 -0.382099
N -1.448260 1.394163 -2.236989
H -1.970475 -2.967155 1.439793
H -3.380439 0.609056 0.861157
H -0.220565 -2.026033 2.227262
H 2.157708 -1.466247 1.788867
H 2.884975 1.056526 -1.848915
H 4.503730 1.101509 -1.229379
H 0.917013 1.402972 -1.154972
H -0.754426 0.865833 -2.748672
H -2.139415 1.922689 -2.758947