26
Extracted from mol_450.out
O -0.280099 -2.464604 0.458956
B -1.423614 -1.815211 0.101969
O -2.531539 -2.576286 -0.143121
C -1.599217 -0.242864 -0.025340
C -2.919416 0.242676 -0.092634
C -3.195866 1.607269 -0.170014
C -2.146788 2.526312 -0.189842
C -0.829915 2.061762 -0.132404
Br 0.566250 3.374502 -0.191031
C -0.526057 0.689258 -0.048224
C 0.901721 0.231472 -0.005879
C 1.540434 -0.219293 -1.174653
C 2.868861 -0.652088 -1.139520
C 3.578670 -0.647648 0.065538
C 2.953179 -0.206208 1.235733
C 1.625269 0.232574 1.200627
H 0.474902 -1.879987 0.610876
H -2.345160 -3.517079 -0.022344
H -3.739387 -0.478325 -0.081525
H -4.228662 1.962860 -0.217391
H -2.340476 3.598544 -0.254770
H 0.987245 -0.225989 -2.117319
H 3.350662 -0.997078 -2.058238
H 4.616758 -0.989080 0.093000
H 3.500599 -0.200365 2.182057
H 1.141645 0.584873 2.115497