18
Extracted from mol_1487.out
O -3.365526 1.059476 0.106386
B -2.537987 0.002263 -0.089662
O -3.097638 -1.229329 -0.268529
C -0.945293 0.048491 -0.133650
C -0.289726 -1.185050 -0.346445
C 1.098263 -1.293053 -0.408072
C 1.893403 -0.150097 -0.256411
C 3.377278 -0.241521 -0.318645
O 4.127201 0.698470 -0.197397
C 1.282784 1.094583 -0.043358
C -0.105686 1.174095 0.014099
Br -0.813311 2.948063 0.312710
H -2.905937 1.904906 0.225348
H -4.062656 -1.188227 -0.230494
H -0.909744 -2.075704 -0.464917
H 1.569672 -2.266421 -0.574464
H 3.769947 -1.277600 -0.491685
H 1.914956 1.976659 0.073178