26
Extracted from mol_1129.out
O -2.830530 1.565219 -0.127636
B -1.650435 2.081668 0.313724
O -1.666972 3.335917 0.863106
C -0.305085 1.274856 0.130719
C 0.888347 1.948956 -0.195066
C 2.085699 1.264991 -0.409762
C 2.147408 -0.137600 -0.305788
B 3.489747 -0.934873 -0.575481
O 3.486284 -2.175343 -1.137260
O 4.712132 -0.419124 -0.259935
C 0.965952 -0.818738 0.035373
C -0.225016 -0.123418 0.247898
O -1.367917 -0.795619 0.657612
C -1.942602 -1.741953 -0.149207
O -1.444231 -2.140072 -1.165835
C -3.267408 -2.164568 0.426457
H -3.561354 2.183108 0.015475
H -0.814281 3.618497 1.214131
H 0.873064 3.038133 -0.311207
H 2.980269 1.832470 -0.686502
H 2.613032 -2.454213 -1.437399
H 4.655681 0.416267 0.217288
H 0.964111 -1.904950 0.149722
H -3.158538 -2.427357 1.489474
H -3.960225 -1.310026 0.368431
H -3.667131 -3.012229 -0.143126