22
Extracted from mol_160.out
O 3.430931 0.774465 0.639146
B 2.493018 0.346760 -0.254185
O 2.964710 -0.134272 -1.432790
C 0.940150 0.547535 0.060114
C 0.557550 1.842128 0.450720
C -0.780408 2.158471 0.687201
C -1.756320 1.177176 0.535425
C -1.434004 -0.138333 0.157142
C -2.569594 -1.130045 0.015721
C -0.069355 -0.439394 -0.064547
C 0.387154 -1.821468 -0.488947
F 1.532786 -2.176213 0.123049
F -0.493656 -2.799973 -0.244198
F 0.638627 -1.860631 -1.828768
H 3.048564 1.063527 1.475223
H 2.276821 -0.461064 -2.024569
H 1.320155 2.619876 0.554645
H -1.064676 3.171961 0.983175
H -2.805765 1.427642 0.712509
H -3.533731 -0.611161 0.115538
H -2.524925 -1.914772 0.786361
H -2.558029 -1.642214 -0.957966