20
Extracted from mol_1703.out
O -1.221856 -1.662430 1.873222
B -1.002617 -1.508963 0.541632
O -1.295603 -2.539009 -0.307362
C -0.159163 -0.220528 0.097622
C -0.790055 0.972200 -0.277864
N -2.267458 0.996262 -0.287078
O -2.833550 2.042157 -0.539961
O -2.837069 -0.062732 -0.041311
C -0.111144 2.135127 -0.646141
C 1.285264 2.120575 -0.650248
C 1.961374 0.957086 -0.285308
C 1.253144 -0.199597 0.087168
C 2.033530 -1.410473 0.479239
O 3.241410 -1.463743 0.477907
H -1.731533 -2.461637 2.067065
H -1.155126 -2.351084 -1.241848
H -0.683077 3.022206 -0.919356
H 1.839329 3.017593 -0.936364
H 3.053080 0.912454 -0.274476
H 1.421117 -2.295464 0.783467