32
Extracted from mol_415.out
O 5.297822 -0.835364 0.723946
B 4.148214 -1.249944 0.118038
O 4.201076 -2.469315 -0.489623
C 2.832615 -0.370363 0.124015
C 2.885979 1.036604 0.123951
C 1.722168 1.803565 0.129952
C 0.475815 1.174442 0.135919
O -0.670540 1.949840 0.262378
C -1.152361 2.639262 -0.816348
O -0.658724 2.582653 -1.909436
C -2.377063 3.423295 -0.425036
C 0.363829 -0.228034 0.122235
C -0.954685 -0.923273 0.116714
C -1.256620 -1.882264 1.099591
C -2.478577 -2.560896 1.085752
C -3.418205 -2.295542 0.085448
C -3.125964 -1.349796 -0.903061
C -1.905841 -0.669249 -0.888934
C 1.560007 -0.966997 0.123941
H 5.187566 -0.018384 1.223051
H 3.404906 -2.675937 -0.992046
H 3.853174 1.549579 0.106841
H 1.765864 2.894671 0.141555
H -2.175774 4.027456 0.472072
H -3.187542 2.721670 -0.170143
H -2.688375 4.061767 -1.260481
H -0.530273 -2.085204 1.891105
H -2.697883 -3.297998 1.863031
H -4.373677 -2.826769 0.073284
H -3.849095 -1.146546 -1.697781
H -1.672824 0.045723 -1.681891
H 1.474985 -2.058648 0.122717