30
Extracted from mol_602.out
O -2.936217 1.145786 -2.661950
B -2.076061 0.968909 -1.617457
O -0.947491 1.727023 -1.542931
C -2.454747 -0.115511 -0.528873
C -3.739850 -0.688463 -0.520303
C -4.117151 -1.617098 0.450846
C -3.212827 -1.989713 1.448710
C -1.931268 -1.434662 1.459906
Cl -0.816018 -1.882295 2.735181
C -1.545174 -0.505741 0.476564
O -0.289050 0.060870 0.509308
C 0.783584 -0.749021 -0.030683
C 2.076000 0.009543 0.104084
C 2.821039 -0.067545 1.291123
C 4.005113 0.659546 1.433921
C 4.455198 1.476879 0.391099
C 3.715648 1.566624 -0.792115
C 2.530693 0.838082 -0.933078
H -2.633318 1.845765 -3.256041
H -0.453576 1.512089 -0.731149
H -4.448249 -0.390027 -1.296620
H -5.120042 -2.051558 0.442387
H -3.489832 -2.704690 2.225984
H 0.825447 -1.699052 0.524575
H 0.562100 -0.970945 -1.089156
H 2.463945 -0.701680 2.107355
H 4.579504 0.589006 2.361520
H 5.383220 2.044416 0.501542
H 4.061877 2.206054 -1.608478
H 1.947502 0.917407 -1.855274