22
Extracted from mol_1020.out
O 0.031960 0.720566 -2.249214
B -0.916278 -0.043093 -1.622096
O -1.847735 -0.791119 -2.286169
C -1.020431 -0.020737 -0.051011
C -2.275189 -0.261831 0.538786
C -2.435358 -0.222451 1.920004
F -3.650523 -0.443593 2.447994
C -1.363375 0.041201 2.769014
C -0.105328 0.259646 2.205478
C 0.057543 0.229518 0.818433
O 1.338400 0.508092 0.353101
C 2.003504 -0.379869 -0.440068
O 1.571947 -1.457330 -0.752132
C 3.326708 0.201080 -0.864161
H 0.040384 0.654176 -3.211954
H -1.784951 -0.786921 -3.248604
H -3.142213 -0.481239 -0.087472
H -1.519784 0.065609 3.849465
H 0.764329 0.458956 2.834805
H 3.864185 0.619677 -0.000544
H 3.133514 1.028621 -1.565597
H 3.928691 -0.571450 -1.358057