16
Extracted from mol_1387.out
O -2.639225 -0.375603 1.160831
B -1.973443 -0.277730 -0.015196
O -2.669837 -0.378349 -1.184581
C -0.397915 -0.046948 0.031561
C 0.210422 1.218094 -0.037097
I -1.007504 2.966535 -0.238991
C 1.595971 1.398370 0.020593
C 2.419791 0.277062 0.147947
C 1.866778 -1.002930 0.212937
C 0.478425 -1.141450 0.152514
Cl -0.197842 -2.763591 0.222108
H -3.588222 -0.512290 1.030821
H -2.129295 -0.275782 -1.976485
H 2.029362 2.398291 -0.031924
H 3.504584 0.404085 0.195407
H 2.497950 -1.887767 0.309554