22
Extracted from mol_1666.out
O -3.750375 0.773983 -1.203094
B -2.641076 1.345070 -0.658300
O -2.736249 2.667021 -0.350150
C -1.312509 0.514690 -0.396652
C -0.050134 1.137471 -0.403782
C 1.139589 0.427430 -0.185604
C 2.430474 1.211626 -0.213494
O 2.437190 2.425153 -0.099160
N 3.579507 0.482986 -0.356554
C 1.065437 -0.945054 0.085623
C -0.176430 -1.594328 0.111318
C -0.250757 -3.049304 0.407105
O -1.274001 -3.692326 0.434006
C -1.349143 -0.864587 -0.139217
H -3.621621 -0.139180 -1.482635
H -1.964682 3.019871 0.107279
H 0.048837 2.210922 -0.590363
H 3.570066 -0.467154 -0.702524
H 4.442606 1.007742 -0.446093
H 1.967187 -1.523632 0.309682
H 0.741190 -3.534134 0.609000
H -2.295110 -1.414266 -0.103383