32
Extracted from mol_250.out
O -2.170158 -2.971732 -0.360770
B -1.081356 -2.356418 -0.925400
O -0.464233 -3.011909 -1.951391
C -0.460647 -0.990593 -0.433411
C 0.943441 -0.913785 -0.453158
C 1.646676 0.205936 0.015141
N 3.054277 0.172635 -0.044515
C 3.967296 1.125397 0.357416
O 3.662226 2.197038 0.846586
C 5.418018 0.707355 0.148903
C 0.914184 1.297212 0.512442
C -0.479323 1.238426 0.511559
C -1.195534 0.123396 0.047399
C -2.725223 0.151426 0.060215
C -3.283837 -0.006275 1.488314
C -3.305069 1.404081 -0.619300
H -2.525448 -2.508231 0.406092
H -0.889692 -3.861238 -2.134488
H 1.505390 -1.764717 -0.851891
H 3.438951 -0.677030 -0.441584
H 5.687340 -0.110707 0.838190
H 6.061294 1.571143 0.356427
H 5.597679 0.355511 -0.880253
H 1.441469 2.174367 0.880828
H -1.023229 2.109759 0.886701
H -3.075811 -0.709733 -0.530284
H -4.386111 -0.042724 1.484160
H -2.976583 0.836495 2.129471
H -2.914199 -0.925397 1.975670
H -3.060781 2.324361 -0.064237
H -4.404255 1.338075 -0.676112
H -2.916751 1.517872 -1.643600