19
Extracted from mol_1341.out
O -2.274575 -2.033094 -0.872594
B -2.352264 -0.813767 -0.272152
O -3.590742 -0.330922 0.049781
C -1.004067 -0.047410 0.009719
C -0.958910 1.248211 0.554780
C 0.249085 1.906221 0.793339
C 1.439244 1.257157 0.481533
F 2.597247 1.883105 0.707878
C 1.447535 -0.034394 -0.063179
C 2.760997 -0.705243 -0.391206
F 3.454431 -0.012357 -1.311191
F 2.574643 -1.942743 -0.879852
F 3.544849 -0.817262 0.694818
C 0.223450 -0.667416 -0.292486
H -3.144197 -2.434612 -1.002320
H -3.593541 0.524988 0.492304
H -1.884350 1.778988 0.804052
H 0.290066 2.912403 1.215142
H 0.221102 -1.671853 -0.718363