22
Extracted from mol_1505.out
O 4.088825 0.091473 0.870168
B 2.829278 -0.403466 1.032321
O 2.591083 -1.059611 2.202343
C 1.708681 -0.226556 -0.073172
C 2.018220 -0.166529 -1.444831
C 1.023816 -0.018795 -2.409481
C -0.320457 0.095844 -2.031721
Br -1.575443 0.271218 -3.451790
C -0.677401 0.049228 -0.666327
C -2.089578 0.200178 -0.178265
O -3.015814 0.642297 -0.810851
O -2.215463 -0.214759 1.101948
C -3.513243 -0.074071 1.680041
C 0.354764 -0.123542 0.276301
H 4.188554 0.637388 0.082426
H 1.724010 -1.479029 2.236694
H 3.057285 -0.255955 -1.779146
H 1.280957 0.006293 -3.469833
H -4.257948 -0.653457 1.113267
H -3.827523 0.981049 1.686756
H -3.433483 -0.454938 2.706000
H 0.060883 -0.156057 1.327152