22
Extracted from mol_927.out
O -2.706793 1.969854 -0.305170
B -1.403036 2.224638 -0.569760
O -1.116206 3.457386 -1.081165
C -0.252244 1.150732 -0.292501
C 1.103900 1.518600 -0.372771
C 2.147526 0.624753 -0.142333
C 1.843280 -0.701856 0.186818
C 2.931978 -1.683722 0.435335
O 4.112416 -1.430894 0.375759
C 0.505567 -1.112899 0.288630
C -0.528069 -0.196571 0.058403
O -1.847654 -0.544810 0.159750
C -2.214286 -1.874649 0.476117
H -2.814896 1.058379 0.006274
H -0.191841 3.588842 -1.314268
H 1.361287 2.554573 -0.617925
H 3.194446 0.927337 -0.208847
H 2.576011 -2.717109 0.692188
H 0.294159 -2.150718 0.552048
H -3.311994 -1.900868 0.483663
H -1.843366 -2.587049 -0.281045
H -1.840185 -2.173945 1.470800