24
Extracted from mol_1869.out
O 0.488562 1.935257 1.522378
B 0.384324 1.660487 0.175026
O 0.625365 2.692236 -0.679471
C 0.095792 0.168517 -0.272773
C 1.094747 -0.840490 -0.204128
B 2.524345 -0.611955 0.438090
O 3.538925 -1.430635 0.027760
O 2.803349 0.331449 1.381029
C 0.800865 -2.119230 -0.717143
C -0.449667 -2.420603 -1.259280
C -1.443296 -1.439880 -1.295228
C -1.170827 -0.155042 -0.805906
S -2.465583 1.098602 -0.881830
C -3.107672 1.036254 0.834237
H 0.672602 2.874517 1.677340
H 0.486518 2.466034 -1.607197
H 4.358620 -1.234789 0.502066
H 2.033483 0.838039 1.692057
H 1.577412 -2.887736 -0.686485
H -0.655602 -3.421400 -1.649344
H -2.433617 -1.659402 -1.701936
H -3.531879 0.046137 1.056042
H -3.905313 1.791885 0.892133
H -2.321452 1.281748 1.562565