26
Extracted from mol_67.out
O -4.402853 0.006160 0.302695
B -3.389689 -0.747024 -0.235229
O -3.758987 -1.876648 -0.910209
C -1.849983 -0.423950 -0.141496
C -0.965784 -1.334815 -0.754376
C 0.419831 -1.183542 -0.754091
C 0.977683 -0.066719 -0.111111
N 2.358715 0.188397 -0.046037
C 3.410599 -0.544185 -0.565425
O 3.275419 -1.573346 -1.197176
C 4.777782 0.054376 -0.258939
C 0.116802 0.858689 0.508007
C -1.272213 0.702079 0.504620
C -2.106176 1.758973 1.200926
H -4.103881 0.791144 0.771264
H -4.718675 -1.988960 -0.912201
H -1.391935 -2.206477 -1.256712
H 1.070156 -1.907636 -1.238873
H 2.610823 1.031298 0.457500
H 4.834282 1.114008 -0.558054
H 5.537334 -0.518458 -0.804675
H 4.993660 -0.004734 0.821210
H 0.550778 1.731369 1.008738
H -1.475666 2.552291 1.628738
H -2.806764 2.252704 0.504247
H -2.691260 1.335006 2.036660