27
Extracted from mol_398.out
O 4.697854 -0.524480 -1.560047
B 4.148783 -0.200948 -0.351113
O 4.976016 0.057507 0.700681
C 2.575981 -0.148768 -0.251934
C 1.775842 -0.436023 -1.372859
C 0.382544 -0.405647 -1.327812
C -0.284999 -0.076005 -0.133035
C -1.770424 -0.034291 -0.063451
C -2.436572 0.938445 0.706933
C -3.831307 0.975908 0.770182
C -4.593866 0.039781 0.064839
C -3.947838 -0.932478 -0.705303
C -2.553229 -0.968218 -0.769505
C 0.495054 0.215854 0.999526
C 1.890882 0.177864 0.936850
O 2.643728 0.453381 2.052414
H 5.663304 -0.530389 -1.517022
H 4.467207 0.273309 1.498137
H 2.278784 -0.684457 -2.310946
H -0.194714 -0.611112 -2.231749
H -1.854224 1.693377 1.241124
H -4.325662 1.747258 1.367155
H -5.685614 0.068398 0.114204
H -4.533671 -1.674071 -1.255308
H -2.060720 -1.746885 -1.356773
H 0.007106 0.447353 1.951693
H 2.069759 0.654561 2.803122