21
Extracted from mol_805.out
O 3.309795 -1.346988 -1.632080
B 2.926388 -0.535128 -0.602116
O 3.924298 -0.002348 0.143872
C 1.388367 -0.235190 -0.304185
C 0.369564 -0.704414 -1.152389
C -0.985952 -0.462714 -0.922347
C -1.373854 0.280789 0.202040
C -2.806113 0.612465 0.549089
O -3.080879 1.490791 1.349794
N -3.768045 -0.119522 -0.089230
C -0.386846 0.783613 1.056177
C 0.963668 0.528460 0.808755
O 1.923673 1.021777 1.650618
H 2.580515 -1.738593 -2.122555
H 3.574909 0.542297 0.864778
H 0.638191 -1.276874 -2.046754
H -1.724649 -0.827103 -1.639650
H -3.553749 -0.981331 -0.571950
H -4.729069 0.047048 0.186556
H -0.706371 1.384511 1.912729
H 1.516159 1.538451 2.358846