25
Extracted from mol_275.out
O 4.495086 -0.436665 0.062458
B 3.214765 -0.736596 0.409859
O 3.012534 -1.756660 1.295862
C 1.915086 -0.001649 -0.126505
C 1.864567 1.071925 -1.031736
Cl 3.338272 1.778666 -1.726472
C 0.660978 1.650695 -1.441978
C -0.543139 1.155570 -0.943669
C -0.562681 0.083610 -0.035689
C -1.870647 -0.467535 0.518604
C -2.763570 -1.053991 -0.589291
C -2.628816 0.581463 1.350909
C 0.667187 -0.464319 0.347205
H 4.554772 0.296771 -0.567766
H 3.849947 -2.150876 1.573874
H 0.673303 2.483818 -2.147183
H -1.477666 1.618591 -1.272777
H -1.601067 -1.294927 1.197778
H -2.233229 -1.830417 -1.163114
H -3.671680 -1.508145 -0.159482
H -3.087692 -0.275278 -1.299990
H -2.948686 1.435093 0.729715
H -2.001479 0.977041 2.165356
H -3.534761 0.142533 1.800830
H 0.678616 -1.298720 1.053200