24
Extracted from mol_1058.out
O 0.342625 0.590402 2.620040
B -0.660016 -0.159225 2.079755
O -1.370576 -0.979395 2.910557
C -1.039222 0.022897 0.557086
C -2.395922 0.055235 0.187320
C -2.810786 0.254126 -1.135404
C -1.854406 0.418066 -2.130280
C -0.484768 0.378131 -1.815380
C 0.507774 0.548153 -2.911299
O 0.200456 0.718505 -4.070832
C -0.097274 0.184376 -0.476089
O 1.263905 0.212859 -0.216471
C 1.879098 -0.780596 0.498759
O 1.317759 -1.776154 0.868385
C 3.317319 -0.422620 0.748820
H 0.459474 0.395234 3.560725
H -1.983997 -1.562792 2.448286
H -3.156683 -0.059207 0.966677
H -3.875552 0.284300 -1.379232
H -2.128086 0.577779 -3.175964
H 1.577970 0.511674 -2.601069
H 3.851181 -1.295789 1.143004
H 3.798321 -0.051411 -0.167793
H 3.341405 0.392419 1.490399