27
Extracted from mol_527.out
O -4.499445 1.236245 0.662902
B -3.184926 1.027677 0.935607
O -2.729672 1.344091 2.182590
C -2.103198 0.439480 -0.070662
C -2.369544 0.044155 -1.407829
C -3.694593 0.150984 -1.952124
N -4.777257 0.257349 -2.364496
C -1.345116 -0.460564 -2.229597
C -0.049593 -0.579887 -1.737588
C 0.259461 -0.199507 -0.417254
C 1.642624 -0.325878 0.113530
C 1.871879 -0.683637 1.456380
C 3.170512 -0.805328 1.954708
C 4.269729 -0.568146 1.123390
C 4.058697 -0.209511 -0.211628
C 2.760055 -0.091622 -0.711151
C -0.782701 0.303707 0.384117
H -4.805574 1.006952 -0.226221
H -3.436887 1.697833 2.738777
H -1.575182 -0.766586 -3.252526
H 0.728172 -0.997277 -2.380831
H 1.023376 -0.892912 2.111954
H 3.324306 -1.093608 2.998032
H 5.286280 -0.661774 1.514338
H 4.910722 -0.012414 -0.867750
H 2.611743 0.213477 -1.749980
H -0.563868 0.626704 1.403314