22
Extracted from mol_1029.out
O -2.125602 -2.463879 -1.207741
B -1.194550 -1.871541 -0.405818
O -0.308182 -2.700586 0.204977
C -1.173958 -0.294703 -0.189613
C -2.328851 0.478178 -0.418940
C -2.363652 1.859870 -0.232569
C -1.204019 2.507617 0.203295
Cl -1.216651 4.236321 0.445791
C -0.032474 1.791540 0.457760
C -0.041156 0.409431 0.261517
O 1.091337 -0.345568 0.575452
C 2.331012 -0.049465 0.043125
O 2.535710 0.895799 -0.661235
C 3.330988 -1.086880 0.479107
H -2.673414 -1.840325 -1.696226
H 0.324634 -2.196416 0.734122
H -3.249489 -0.018008 -0.743115
H -3.273512 2.433412 -0.416004
H 0.865183 2.305424 0.796787
H 4.319705 -0.833246 0.078668
H 3.019217 -2.077946 0.112253
H 3.367724 -1.139031 1.578406