18
Extracted from mol_1301.out
O 3.408001 0.147747 0.375256
B 2.302283 -0.524285 -0.070855
O 2.478376 -1.750975 -0.631722
C 0.832409 0.037058 0.031265
C 0.549237 1.368144 0.404111
C -0.756298 1.852784 0.492829
C -1.808251 0.987294 0.204182
F -3.063355 1.448334 0.292383
C -1.587336 -0.345668 -0.174493
C -2.715405 -1.264382 -0.483902
O -2.568273 -2.420925 -0.809265
C -0.259288 -0.796273 -0.256889
H 3.224092 0.986178 0.813123
H 3.405779 -2.023469 -0.636792
H 1.365385 2.064699 0.626270
H -0.975282 2.883699 0.778288
H -3.733734 -0.815357 -0.396951
H -0.098340 -1.834603 -0.556836