17
Extracted from mol_754.out
O 2.751030 -1.598568 0.070908
B 2.130661 -0.383392 0.006783
O 2.942369 0.699023 -0.066735
C 0.539443 -0.258421 0.021555
C -0.284766 -1.385705 0.190550
C -1.679029 -1.310952 0.209459
C -2.302967 -0.070873 0.057183
C -1.514340 1.065219 -0.107737
Cl -2.257888 2.650125 -0.298626
C -0.109236 0.988924 -0.125093
O 0.640717 2.111377 -0.282725
H 2.153511 -2.352406 0.091899
H 2.436164 1.522190 -0.128841
H 0.175471 -2.370904 0.318900
H -2.282591 -2.211417 0.343513
H -3.390284 0.025511 0.066653
H 0.051738 2.880269 -0.367645