30
Extracted from mol_624.out
O -0.615014 -0.729246 2.415002
B -1.894260 -0.340638 2.166942
O -2.836647 -0.485504 3.145206
C -2.369774 0.280696 0.791241
C -3.715669 0.654036 0.641076
C -4.187858 1.207534 -0.551955
I -6.237224 1.758082 -0.733516
C -3.320617 1.401577 -1.627147
C -1.974326 1.039451 -1.507792
C -1.503080 0.483870 -0.309920
O -0.196600 0.110124 -0.131598
C 0.752021 0.264310 -1.190402
C 2.089682 -0.239350 -0.713284
C 2.403112 -1.605309 -0.791595
C 3.627433 -2.081712 -0.316227
C 4.553212 -1.195254 0.244183
C 4.249980 0.167200 0.328189
C 3.023566 0.640826 -0.146395
H -0.051544 -0.571949 1.639446
H -2.456965 -0.869554 3.946600
H -4.389855 0.500093 1.485588
H -3.679004 1.833674 -2.563662
H -1.312558 1.199710 -2.358927
H 0.412307 -0.307526 -2.072172
H 0.816692 1.329122 -1.475812
H 1.680947 -2.300667 -1.229689
H 3.860944 -3.147454 -0.384708
H 5.512514 -1.566772 0.614282
H 4.970649 0.863640 0.764758
H 2.787937 1.706991 -0.077710