19
Extracted from mol_846.out
O 1.717901 2.484089 -0.813690
B 1.908623 1.330457 -0.114861
O 3.128810 1.066530 0.425429
C 0.664985 0.359921 0.017917
C -0.556987 0.711730 -0.573364
C -1.668460 -0.125143 -0.472580
N -2.938349 0.272784 -1.105124
O -3.887288 -0.490237 -0.994344
O -2.966656 1.337939 -1.700603
C -1.608041 -1.338608 0.217018
C -0.407210 -1.709581 0.812215
C 0.713962 -0.869825 0.713004
O 1.897711 -1.222175 1.292354
H 2.519858 3.022168 -0.851262
H 3.137529 0.219476 0.896160
H -0.645400 1.650558 -1.120426
H -2.496088 -1.967802 0.275808
H -0.335451 -2.655738 1.357912
H 1.820551 -2.076543 1.738437