16
Extracted from mol_1280.out
O 3.014244 0.264644 -0.727043
B 2.103480 -0.314826 0.093060
O 2.596279 -1.227298 0.980486
C 0.533831 -0.042004 0.023146
C -0.331366 -1.130841 0.273352
C -1.721493 -1.029768 0.224115
C -2.280430 0.208766 -0.079580
F -3.610110 0.338807 -0.127549
C -1.486935 1.324099 -0.339146
C -0.098791 1.176024 -0.291141
Br 0.927959 2.758502 -0.669180
H 2.636466 0.936904 -1.308384
H 1.939743 -1.548471 1.607852
H 0.106179 -2.107821 0.500965
H -2.371577 -1.886078 0.413374
H -1.957479 2.279363 -0.574328