20
Extracted from mol_886.out
O 0.483234 -2.789748 -0.146439
B -0.567029 -2.099320 0.373367
O -1.551730 -2.774281 1.036354
C -0.719393 -0.529360 0.241207
C -1.883004 0.100162 0.721342
C -2.067632 1.480251 0.625433
C -1.081594 2.266385 0.023752
C 0.068580 1.659969 -0.468921
F 0.994615 2.428879 -1.078680
C 0.275709 0.274910 -0.358374
O 1.397197 -0.342698 -0.855884
C 2.682052 0.259729 -0.701609
H 1.088501 -2.171526 -0.591585
H -1.377552 -3.724798 1.053409
H -2.650678 -0.522946 1.185538
H -2.976568 1.948460 1.010812
H -1.186738 3.348057 -0.088132
H 3.418056 -0.547170 -0.827660
H 2.796086 0.697582 0.304228
H 2.857889 1.037463 -1.458158