24
Extracted from mol_861.out
O -3.435251 1.227657 0.335989
B -2.319083 1.929857 -0.013687
O -2.441196 3.265859 -0.284406
C -0.887477 1.287394 -0.124306
C 0.216566 2.083440 -0.489115
C 1.506530 1.578531 -0.604195
C 1.736407 0.217257 -0.349597
O 3.016409 -0.211350 -0.480120
C 3.330220 -1.565029 -0.247692
C 0.668829 -0.619113 0.017748
C -0.621535 -0.076812 0.125492
O -1.698194 -0.853673 0.482621
C -1.531358 -2.228994 0.754696
H -3.200088 0.299684 0.497578
H -3.356924 3.558388 -0.186900
H 0.037828 3.143214 -0.687637
H 2.351650 2.208480 -0.887792
H 4.410905 -1.669631 -0.415751
H 3.100768 -1.870373 0.789890
H 2.795430 -2.238242 -0.942797
H 0.843045 -1.673403 0.216016
H -1.151255 -2.776376 -0.126025
H -0.847566 -2.396774 1.605581
H -2.524657 -2.619986 1.014408