34
Extracted from mol_563.out
O -1.618139 3.746902 -1.206510
B -0.851915 2.656602 -0.890526
O 0.497018 2.734128 -1.068485
C -1.590328 1.381003 -0.338950
C -2.983986 1.388560 -0.185611
C -3.709362 0.294934 0.298985
C -3.014836 -0.870056 0.650701
O -3.594557 -1.998111 1.131792
C -4.994075 -2.035249 1.305361
C -1.615095 -0.925084 0.513992
C -0.921454 0.183696 0.027416
O 0.442355 0.181744 -0.125287
C 1.204334 -0.973899 0.225673
C 2.660492 -0.688103 -0.038011
C 3.452131 -0.066692 0.940156
C 4.793017 0.232601 0.685328
C 5.357636 -0.085552 -0.554221
C 4.576945 -0.702894 -1.536608
C 3.235801 -1.000190 -1.279010
H -1.069840 4.471843 -1.534299
H 0.920597 1.899293 -0.809850
H -3.522413 2.299099 -0.460873
H -4.792818 0.362361 0.395595
H -5.530977 -1.892412 0.350047
H -5.233546 -3.031134 1.702959
H -5.339594 -1.269954 2.023748
H -1.122009 -1.852628 0.800273
H 0.863020 -1.837457 -0.372083
H 1.040944 -1.211955 1.291812
H 3.012908 0.183235 1.910511
H 5.399674 0.714433 1.456684
H 6.407194 0.146534 -0.753965
H 5.013884 -0.953739 -2.506835
H 2.626992 -1.481858 -2.049911