33
Extracted from mol_421.out
O -1.597742 3.674042 1.703260
B -1.727066 2.570238 0.904562
O -2.947511 2.361261 0.326613
C -0.439481 1.685037 0.683109
C 0.801824 2.280130 0.990410
C 2.014160 1.652179 0.731079
C 2.035596 0.376102 0.139700
N 3.289407 -0.210835 -0.106937
C 3.590871 -1.424693 -0.696143
O 2.755648 -2.204896 -1.110204
C 5.085741 -1.707065 -0.776115
C 0.815759 -0.250910 -0.161870
C -0.406691 0.385502 0.112577
C -1.650192 -0.385549 -0.202319
C -1.870306 -0.897826 -1.495622
C -3.011402 -1.651286 -1.785036
C -3.952788 -1.915188 -0.785107
C -3.744492 -1.420371 0.506345
C -2.605324 -0.663797 0.795138
H -2.425125 4.171886 1.746737
H -2.997895 1.550583 -0.196514
H 0.805011 3.277718 1.435694
H 2.954892 2.153643 0.981386
H 4.081527 0.348830 0.188105
H 5.617403 -0.904785 -1.314134
H 5.524407 -1.786026 0.232683
H 5.231621 -2.656385 -1.305414
H 0.830069 -1.248926 -0.593547
H -1.138137 -0.693998 -2.281153
H -3.164957 -2.033873 -2.797710
H -4.844054 -2.506812 -1.010363
H -4.469456 -1.630215 1.297445
H -2.441316 -0.293716 1.810235