23
Extracted from mol_1899.out
O 3.303466 0.033382 -1.329299
B 2.708077 -0.528835 -0.240034
O 3.356330 -1.290870 0.690505
C 1.141351 -0.381704 -0.077718
C 0.373425 -1.554337 0.023147
C -1.018427 -1.507850 0.122177
C -1.710480 -0.285624 0.148342
B -3.279411 -0.195387 0.266735
O -3.839010 1.027809 0.479233
O -4.112377 -1.276504 0.163149
C -0.942315 0.890840 0.079470
C 0.449729 0.848712 -0.039209
C 1.208694 2.156168 -0.112993
F 0.505053 3.177541 0.407928
F 2.372782 2.094279 0.574694
F 1.517239 2.500783 -1.374735
H 4.261898 -0.063591 -1.388530
H 4.305856 -1.398828 0.553221
H 0.879582 -2.523638 0.025474
H -1.564196 -2.455771 0.197182
H -4.803621 0.984695 0.523680
H -3.663894 -2.106970 -0.032683
H -1.449754 1.855701 0.129173