19
Extracted from mol_1696.out
O 3.324587 0.665408 0.235098
B 2.455501 -0.385219 0.205141
O 2.952329 -1.648174 0.287826
C 0.886292 -0.228910 0.078544
C 0.069950 -1.376476 0.077288
C -1.328707 -1.279961 -0.033201
C -2.140023 -2.467498 -0.031563
N -2.797752 -3.424221 -0.030241
C -1.932700 -0.014506 -0.145908
C -1.137663 1.135034 -0.147032
C -1.762934 2.480346 -0.266180
O -1.142647 3.517810 -0.275131
C 0.257644 1.017873 -0.035197
H 2.921520 1.539386 0.178028
H 3.916133 -1.662939 0.363631
H 0.533823 -2.361316 0.163949
H -3.019800 0.066797 -0.232212
H -2.880647 2.472169 -0.350023
H 0.825092 1.954398 -0.042818