22
Extracted from mol_1045.out
O -4.303336 0.942933 0.274188
B -2.967344 1.177319 0.345204
O -2.551171 2.465484 0.525280
C -1.817482 0.084116 0.235330
C -1.953437 -1.307229 0.063313
Br -3.679963 -2.164912 -0.073668
C -0.853112 -2.161263 -0.019102
C 0.447348 -1.657246 0.066491
C 0.617131 -0.277800 0.237088
O 1.830669 0.383025 0.340216
C 3.066647 -0.186673 0.277080
O 3.276748 -1.360953 0.125070
C 4.121682 0.881132 0.424144
C -0.496208 0.562810 0.318868
H -4.531892 0.009395 0.146497
H -3.301043 3.072589 0.581072
H -1.002856 -3.234303 -0.151629
H 1.305573 -2.320476 0.001502
H 5.115374 0.418209 0.396592
H 3.980362 1.423832 1.371669
H 4.025392 1.617352 -0.389368
H -0.329081 1.632657 0.452828