40
Extracted from mol_388.out
O 2.201889 -3.123003 -0.642437
B 0.924425 -3.254606 -1.084631
O 0.673401 -4.330605 -1.889952
C -0.226011 -2.229855 -0.690931
C -1.579197 -2.555061 -0.878153
C -2.623782 -1.688998 -0.552337
C -2.345823 -0.426463 -0.004285
C -3.440266 0.515945 0.353888
C -4.592002 0.623767 -0.449503
C -5.621290 1.506876 -0.116376
C -5.524753 2.301942 1.030005
C -4.388737 2.205406 1.839551
C -3.358718 1.323582 1.504672
C -0.999067 -0.073360 0.207400
C 0.034623 -0.957585 -0.122814
O 1.353644 -0.647483 0.079810
C 1.741122 0.657172 0.484214
C 3.248338 0.770779 0.472441
C 4.027701 0.062633 -0.455168
C 5.416284 0.223110 -0.478685
C 6.041517 1.098641 0.414363
C 5.270841 1.807703 1.340814
C 3.883773 1.639312 1.372234
H 2.295053 -2.322750 -0.104253
H -0.219159 -4.344628 -2.250609
H -1.839322 -3.539982 -1.281455
H -3.658632 -2.006807 -0.694883
H -4.669757 0.024976 -1.360199
H -6.501507 1.579601 -0.760992
H -6.330845 2.992527 1.291491
H -4.306831 2.814642 2.743855
H -2.489553 1.239593 2.161885
H -0.774025 0.910810 0.616025
H 1.298347 1.397649 -0.210211
H 1.350579 0.879656 1.494120
H 3.548117 -0.631699 -1.148124
H 6.012192 -0.341902 -1.200357
H 7.127439 1.223027 0.393118
H 5.751272 2.487571 2.049549
H 3.288718 2.187866 2.109141