18
Extracted from mol_1454.out
O 2.903136 -1.487766 0.417797
B 2.326391 -0.262322 0.496746
O 3.107179 0.797312 0.854734
C 0.798030 0.083425 0.200068
C 0.446733 1.448693 0.257799
C -0.843506 1.904896 -0.011391
C -1.837948 0.989572 -0.342863
C -1.534865 -0.372887 -0.374077
N -2.661792 -1.280836 -0.684135
O -3.452672 -0.896574 -1.530942
O -2.747078 -2.319742 -0.056363
C -0.229534 -0.829169 -0.117491
Cl 0.118552 -2.547029 -0.261725
H 2.286686 -2.189376 0.163353
H 4.020566 0.526447 1.018437
H 1.231302 2.162302 0.516061
H -1.074913 2.971521 0.032390
H -2.856270 1.301535 -0.578397