23
Extracted from mol_733.out
O 4.358137 1.130287 0.211234
B 3.072042 1.422080 -0.141245
O 2.864917 2.671264 -0.649644
C 1.898669 0.378768 0.029147
C 2.119588 -1.006723 -0.073452
C 1.081540 -1.930274 0.068623
C -0.223373 -1.495492 0.330867
O -1.273476 -2.329655 0.504821
C -0.463282 -0.111525 0.434125
O -1.734138 0.337752 0.752124
C -2.725207 0.228080 -0.192695
O -2.523682 -0.126104 -1.319625
C -4.051573 0.615463 0.405874
C 0.576216 0.797316 0.281047
H 4.438515 0.284793 0.666464
H 1.972906 2.795168 -0.992779
H 3.124618 -1.385063 -0.286796
H 1.278488 -3.003670 -0.022425
H -0.997126 -3.241595 0.343489
H -4.815090 0.649264 -0.380575
H -4.333601 -0.127885 1.168561
H -3.974853 1.589374 0.912394
H 0.329766 1.858376 0.384267