22
Extracted from mol_1407.out
O -1.813376 2.651380 0.897069
B -1.013273 2.082083 -0.045782
O -0.169150 2.867128 -0.758049
C -1.133059 0.490384 -0.211442
C -0.051807 -0.421380 -0.067013
C 1.361700 0.064437 0.014532
O 1.786639 1.080184 -0.505336
O 2.162925 -0.771984 0.686948
C 3.549185 -0.425256 0.744988
C -0.257174 -1.811888 -0.069678
C -1.532388 -2.334681 -0.272053
C -2.606964 -1.470883 -0.475810
C -2.397021 -0.088018 -0.439966
Cl -3.798514 0.923279 -0.751687
H -1.658141 3.605266 0.946900
H 0.574950 2.345703 -1.111973
H 3.981336 -0.373184 -0.265980
H 3.684745 0.551111 1.233746
H 4.034906 -1.216339 1.329264
H 0.595965 -2.476262 0.069630
H -1.689866 -3.416020 -0.286644
H -3.611617 -1.855064 -0.661661