27
Extracted from mol_1251.out
O -0.205596 3.998316 0.100667
B -0.675031 2.729910 0.287591
O -2.031342 2.611302 0.494662
C 0.234464 1.448925 0.267479
C 1.634566 1.617689 0.282104
C 2.525975 0.549969 0.247156
C 2.037165 -0.768008 0.190341
B 3.029203 -1.994070 0.140370
O 2.620304 -3.293258 0.031035
O 4.368434 -1.744946 0.208032
C 0.649256 -0.965844 0.182915
C -0.256848 0.111187 0.228725
N -1.646067 -0.101753 0.235354
C -2.350658 -1.284599 0.173596
O -1.848067 -2.392078 0.082261
C -3.860176 -1.089044 0.242637
H 0.735702 4.050220 -0.101597
H -2.478595 3.468613 0.468625
H 2.051375 2.630382 0.336378
H 3.603587 0.727351 0.264276
H 1.663328 -3.406647 -0.023015
H 4.886086 -2.560358 0.167020
H 0.219179 -1.965481 0.145134
H -2.198124 0.749689 0.319840
H -4.346455 -2.060071 0.089089
H -4.152997 -0.690497 1.228358
H -4.208667 -0.376897 -0.522992