22
Extracted from mol_1818.out
O 3.599904 -0.404038 -0.636787
B 2.480264 -0.767912 0.053373
O 2.503656 -1.886391 0.820306
C 1.190232 0.156877 0.099350
C 1.323052 1.493472 0.500096
C 0.213133 2.340286 0.556804
C -1.042411 1.859919 0.199410
C -1.248442 0.519633 -0.178606
C -2.689302 0.234839 -0.618389
O -3.339206 1.143745 -1.110345
N -3.202772 -0.993403 -0.384198
C -0.103681 -0.302419 -0.213418
N -0.146043 -1.717670 -0.661633
O 0.657086 -2.042245 -1.517731
O -0.932942 -2.488463 -0.129210
H 3.477264 0.363822 -1.207384
H 3.327488 -2.384245 0.722911
H 2.311462 1.876410 0.771251
H 0.329998 3.382880 0.863193
H -1.910932 2.519852 0.177554
H -2.641892 -1.746737 0.000409
H -4.155914 -1.158213 -0.687325