29
Extracted from mol_370.out
O -1.639043 -2.760542 -0.628265
B -0.505599 -2.123004 -1.071773
O 0.116398 -2.649384 -2.163550
C 0.141460 -0.866251 -0.367399
C 1.534258 -0.908497 -0.155244
C 2.243164 0.107723 0.507914
B 3.797942 -0.005540 0.715517
O 4.406880 -1.199657 0.466349
O 4.584726 1.037415 1.131928
C 1.495848 1.210309 0.960407
C 0.120709 1.291857 0.748941
C -0.578612 0.268213 0.086283
C -2.081365 0.424499 -0.150984
C -2.409482 1.682142 -0.975579
C -2.877389 0.403088 1.167576
H -1.993293 -2.391685 0.188922
H -0.326776 -3.451280 -2.474481
H 2.093305 -1.773246 -0.522587
H 5.362640 -1.149539 0.601868
H 4.108881 1.869660 1.232586
H 1.986434 2.032004 1.496430
H -0.418886 2.173953 1.105113
H -2.413003 -0.438689 -0.748627
H -1.859243 1.687158 -1.929619
H -3.487460 1.725220 -1.203517
H -2.148854 2.605691 -0.433008
H -2.609090 1.255007 1.814004
H -2.683075 -0.515533 1.746902
H -3.961474 0.458908 0.973730