27
Extracted from mol_1200.out
O -3.531375 -0.695558 -1.397488
B -2.726088 -0.214222 -0.398701
O -3.232108 0.679963 0.472985
C -1.264261 -0.852610 -0.355214
C -1.216754 -2.238708 -0.606672
C -0.018541 -2.944884 -0.698547
C 1.185006 -2.260168 -0.552642
C 1.198069 -0.882275 -0.287677
C 2.514885 -0.160114 -0.178816
O 2.665958 1.013737 -0.516786
N 3.562846 -0.888745 0.296236
C -0.034449 -0.177353 -0.180700
N 0.058751 1.226505 0.035918
C -0.417531 1.932200 1.106166
O -1.225919 1.492281 1.920129
C 0.105447 3.352610 1.205683
H -4.414325 -0.304655 -1.337779
H -2.586907 0.934310 1.174934
H -2.160541 -2.764238 -0.770373
H -0.020769 -4.016170 -0.914472
H 2.129599 -2.794436 -0.680537
H 3.433115 -1.778752 0.757424
H 4.452462 -0.412648 0.394892
H 0.903799 1.611536 -0.396192
H 0.081638 3.661488 2.259037
H -0.565210 4.021846 0.640987
H 1.123204 3.459056 0.801656