19
Extracted from mol_791.out
O 2.825923 0.250070 -1.107735
B 2.057772 0.588313 -0.037460
O 2.642288 1.300850 0.974429
C 0.518273 0.216036 -0.003162
C -0.023310 -1.040189 -0.381573
C 0.829812 -2.181657 -0.803554
O 0.395701 -3.269437 -1.121862
C -1.412844 -1.247462 -0.328947
C -2.277232 -0.240630 0.083389
C -1.754109 1.006456 0.463570
O -2.534799 2.031703 0.875032
C -0.366807 1.217743 0.424063
H 3.738096 0.559241 -1.011355
H 2.054428 1.460099 1.722859
H 1.927058 -1.982871 -0.809788
H -1.793414 -2.229692 -0.619601
H -3.358325 -0.413205 0.116251
H -3.464557 1.767023 0.849446
H -0.003953 2.207608 0.715998