27
Extracted from mol_882.out
O -3.716895 -2.820901 0.020147
B -2.376906 -2.720248 0.278447
O -1.720898 -3.844863 0.687289
C -1.553974 -1.386189 0.125906
C -0.160419 -1.404276 0.308333
C 0.599848 -0.233493 0.175306
N 1.992419 -0.334131 0.372056
C 2.958778 0.643717 0.295434
O 2.732516 1.812100 0.033651
C 4.376169 0.152146 0.556174
C -0.028356 0.985239 -0.142471
C -1.417833 1.008335 -0.322471
O -2.113867 2.132981 -0.628168
C -1.421913 3.355014 -0.774283
C -2.171911 -0.168917 -0.189136
H -4.119705 -2.001626 -0.290268
H -2.314218 -4.606135 0.739671
H 0.330201 -2.349453 0.557372
H 2.316065 -1.266391 0.599982
H 4.830566 0.793474 1.326134
H 4.967844 0.283620 -0.363599
H 4.441588 -0.898637 0.875642
H 0.585129 1.875823 -0.238640
H -0.678398 3.311676 -1.590198
H -2.178013 4.113790 -1.018708
H -0.904926 3.648930 0.156785
H -3.252893 -0.081583 -0.336141