25
Extracted from mol_56.out
O 4.207673 0.213145 0.118824
B 2.964255 0.467087 0.617428
O 2.876474 1.338042 1.672666
C 1.736774 -0.293305 -0.022095
C 1.977429 -1.596176 -0.502409
C 0.954856 -2.382595 -1.032949
C -0.340425 -1.868815 -1.096526
C -0.587683 -0.576617 -0.635373
O -1.886929 -0.087268 -0.795891
C -2.690058 0.073996 0.296539
O -2.335361 -0.149743 1.422168
C -4.050527 0.567947 -0.126464
C 0.425159 0.240128 -0.104027
C 0.085245 1.649719 0.324688
H 4.892805 0.682771 0.614344
H 1.988059 1.422943 2.036470
H 2.994843 -1.991798 -0.456133
H 1.162103 -3.392113 -1.397348
H -1.168661 -2.450076 -1.507917
H -3.954089 1.536507 -0.641742
H -4.693761 0.673560 0.755362
H -4.499981 -0.136093 -0.843665
H -0.658312 2.094937 -0.354143
H 0.967885 2.302987 0.326202
H -0.367772 1.660830 1.331990