32
Extracted from mol_639.out
O 3.219969 -2.212300 -1.915698
B 3.674299 -1.576391 -0.800991
O 4.755179 -2.116561 -0.157166
C 2.874557 -0.305217 -0.297698
C 3.461714 0.880914 0.206881
C 4.925312 1.104028 0.195231
O 5.479148 2.093243 0.627564
C 2.639164 1.922585 0.687144
C 1.260749 1.808544 0.673141
C 0.660356 0.640175 0.157273
O -0.689455 0.618000 0.169479
C -1.388444 -0.514412 -0.351774
C -2.868964 -0.267602 -0.217970
C -3.586137 0.346310 -1.255301
C -4.952827 0.605006 -1.119657
C -5.617424 0.253989 0.059663
C -4.910856 -0.356437 1.101096
C -3.544650 -0.614131 0.961636
C 1.470828 -0.400234 -0.326799
H 3.740789 -3.002581 -2.116974
H 4.994247 -1.667158 0.661719
H 5.530100 0.281668 -0.266466
H 3.124772 2.827365 1.060551
H 0.611835 2.606300 1.041203
H -1.113492 -0.664882 -1.410924
H -1.094218 -1.420698 0.207516
H -3.068267 0.623614 -2.178249
H -5.500867 1.081177 -1.937069
H -6.687037 0.453805 0.166393
H -5.426353 -0.633909 2.024434
H -2.994079 -1.090573 1.778259
H 1.020051 -1.303636 -0.737847