20
Extracted from mol_920.out
O 3.402094 -0.166391 -1.699195
B 2.931872 -0.004169 -0.437711
O 3.875280 0.180720 0.531487
C 1.392638 -0.108098 -0.025895
C 1.115593 -0.843935 1.150366
C -0.187182 -1.029121 1.604747
C -1.262620 -0.474897 0.907924
C -1.033976 0.266649 -0.262571
O -2.017487 0.839170 -0.989276
C -3.363963 0.704401 -0.587172
C 0.295609 0.429677 -0.715524
I 0.551813 1.570437 -2.511677
H 2.704236 -0.230857 -2.364146
H 3.493449 0.349489 1.400111
H 1.944561 -1.293904 1.704265
H -0.376681 -1.610153 2.511177
H -2.278623 -0.620722 1.275903
H -3.683396 -0.353099 -0.572307
H -3.962831 1.247791 -1.330159
H -3.540387 1.147014 0.409653