24
Extracted from mol_1762.out
O -1.860762 2.975353 1.196231
B -1.140213 2.305199 0.246961
O -0.452644 3.055612 -0.635099
C -1.208837 0.701039 0.200215
C -2.440647 0.105701 0.543766
C -2.636579 -1.276265 0.537840
C -1.586993 -2.118527 0.177516
C -0.366900 -1.548939 -0.181681
N 0.686600 -2.476576 -0.651850
O 1.480864 -2.053248 -1.477764
O 0.670822 -3.612514 -0.212094
C -0.148828 -0.160553 -0.170619
C 1.201718 0.407508 -0.528003
O 1.379294 1.223382 -1.407205
O 2.158481 -0.038023 0.280711
C 3.501076 0.363212 -0.024967
H -2.260665 2.405223 1.861282
H 0.099616 2.533057 -1.244416
H -3.282091 0.750935 0.813276
H -3.608785 -1.698182 0.803703
H -1.693491 -3.203250 0.153174
H 3.577746 1.459110 -0.070677
H 3.805252 -0.062700 -0.992683
H 4.125968 -0.036555 0.782379