18
Extracted from mol_841.out
O 3.114618 0.263215 -0.276772
B 2.032123 -0.527639 -0.494585
O 2.230914 -1.749045 -1.067931
C 0.523899 -0.162404 -0.139521
C 0.106481 1.057820 0.463088
C 1.063111 2.071930 0.800171
N 1.865459 2.872897 1.063463
C -1.251791 1.295150 0.741186
C -2.212102 0.337517 0.430770
C -1.820868 -0.872553 -0.163758
O -2.702649 -1.842935 -0.489870
C -0.463964 -1.105895 -0.440127
H 2.952733 1.125569 0.132578
H 3.166213 -1.904521 -1.256547
H -1.552383 2.237809 1.203633
H -3.267558 0.527903 0.649560
H -3.599680 -1.570839 -0.252593
H -0.184554 -2.053978 -0.902745