20
Extracted from mol_43.out
O 3.431316 -0.431971 0.385717
B 2.411877 0.388144 0.004247
O 2.709836 1.638592 -0.460826
C 0.891654 -0.028795 0.069928
C 0.467167 -1.290529 0.533168
O 1.429096 -2.185898 0.938902
C -0.890252 -1.624310 0.584630
C -1.849218 -0.698877 0.169200
C -1.477862 0.569277 -0.304440
C -2.514942 1.558327 -0.782607
C -0.109291 0.871616 -0.338579
H 3.091300 -1.286552 0.695413
H 3.663691 1.794001 -0.460062
H 1.017336 -3.007640 1.235969
H -1.198592 -2.608517 0.953866
H -2.907765 -0.972683 0.218106
H -3.436088 1.505226 -0.180179
H -2.137483 2.591272 -0.734401
H -2.802676 1.364871 -1.831611
H 0.210898 1.854446 -0.696440