27
Extracted from mol_304.out
O 4.340545 -1.029598 0.510229
B 3.146782 -1.441338 -0.002821
O 3.107944 -2.719516 -0.474581
C 1.880266 -0.490652 -0.048253
C 2.010592 0.897244 -0.222248
C 0.883683 1.729415 -0.268609
C 1.044115 3.193353 -0.466149
O 0.132377 3.986958 -0.511966
C -0.399715 1.179433 -0.127214
C -0.575520 -0.197751 0.054578
C -1.963111 -0.806715 0.216135
C -2.827657 -0.598789 -1.039946
C -2.672804 -0.284561 1.477872
C 0.575293 -1.004923 0.083299
H 4.297208 -0.160612 0.924599
H 2.280000 -2.935608 -0.917890
H 3.002680 1.348590 -0.342234
H 2.108573 3.532588 -0.573857
H -1.250764 1.864734 -0.164963
H -1.820806 -1.894456 0.343601
H -3.022781 0.471203 -1.221067
H -2.336855 -1.005823 -1.938315
H -3.803096 -1.099961 -0.927952
H -3.646724 -0.783495 1.610828
H -2.070749 -0.466563 2.382189
H -2.861108 0.799953 1.413124
H 0.441631 -2.083111 0.231614