26
Extracted from mol_437.out
O 2.993576 2.524199 -0.380874
B 3.363686 1.383009 0.267019
O 4.652123 1.255757 0.692437
C 2.256085 0.277421 0.481244
C 2.498507 -0.937868 1.129798
F 3.745207 -1.192715 1.613453
C 1.527426 -1.915506 1.314162
C 0.240974 -1.677925 0.829723
C -0.076344 -0.476868 0.164776
C -1.449429 -0.225659 -0.352296
C -2.215601 -1.265228 -0.913879
C -3.504137 -1.029357 -1.398631
C -4.057342 0.253197 -1.334285
C -3.309195 1.296762 -0.780502
C -2.021192 1.060009 -0.295162
C 0.945945 0.475178 0.006545
H 3.732702 3.141089 -0.467510
H 4.812143 0.413903 1.140099
H 1.783090 -2.838146 1.839069
H -0.534379 -2.430202 0.992926
H -1.786949 -2.267321 -0.995534
H -4.075915 -1.851524 -1.837729
H -5.065648 0.438578 -1.713911
H -3.733959 2.302402 -0.717967
H -1.457480 1.880185 0.156020
H 0.736103 1.406633 -0.523631