26
Extracted from mol_71.out
O -4.610217 -1.343752 0.214974
B -3.837635 -0.212284 0.168729
O -4.482486 0.991611 0.156230
C -2.268562 -0.223306 0.131845
C -1.511532 -1.406959 0.125285
C -0.118003 -1.400129 0.094001
C 0.572180 -0.175109 0.067833
N 1.977852 -0.101543 0.036164
C 2.915104 -1.119271 0.030520
O 2.640038 -2.302952 0.056415
C 4.352753 -0.616830 -0.023512
C -0.154504 1.044683 0.072663
C 0.557627 2.377130 0.044809
C -1.550111 0.987132 0.104212
H -4.104894 -2.164579 0.227672
H -5.442291 0.881566 0.184130
H -2.007500 -2.384663 0.144102
H 0.451758 -2.326151 0.090019
H 2.356729 0.836756 0.016075
H 4.552217 -0.107443 -0.981264
H 4.561619 0.097850 0.789619
H 5.025663 -1.477911 0.068894
H 1.218670 2.515785 0.920244
H 1.180955 2.498710 -0.860323
H -0.164663 3.205471 0.052212
H -2.110766 1.926188 0.107912