26
Extracted from mol_447.out
O 3.257016 -2.353388 0.524905
B 3.527713 -1.078746 0.117844
O 4.775334 -0.862583 -0.365780
C 2.389503 0.039067 0.175597
C 2.596866 1.424693 0.301837
Cl 4.227108 2.091182 0.450903
C 1.541316 2.339257 0.323812
C 0.230288 1.882437 0.201334
C -0.045998 0.510937 0.056805
C -1.441721 0.017225 -0.089027
C -2.388640 0.738887 -0.841220
C -3.699288 0.277101 -0.980334
C -4.094315 -0.917249 -0.369782
C -3.166416 -1.645323 0.381280
C -1.855849 -1.183018 0.519791
C 1.047269 -0.372495 0.050507
H 2.392811 -2.450072 0.938640
H 4.939997 0.064666 -0.581378
H 1.750560 3.403924 0.442759
H -0.589861 2.603280 0.239119
H -2.087281 1.660736 -1.344983
H -4.414287 0.850145 -1.576872
H -5.120190 -1.278750 -0.478489
H -3.466559 -2.575918 0.870505
H -1.149485 -1.748961 1.132271
H 0.844109 -1.437031 -0.100042