26
Extracted from mol_1777.out
O -1.514098 2.858554 0.005797
B -1.839905 1.611242 0.454144
O -2.911200 1.538116 1.315455
C -1.008723 0.326935 0.075563
C -1.533536 -0.970359 -0.199982
B -3.072994 -1.384255 -0.192026
O -4.074101 -0.724276 0.440453
O -3.388996 -2.526794 -0.876497
C -0.626106 -1.996417 -0.536233
C 0.750749 -1.787308 -0.580621
C 1.269921 -0.515712 -0.305762
C 2.750275 -0.323897 -0.363672
O 3.544693 -1.197385 -0.625344
O 3.119936 0.945537 -0.092423
C 4.521097 1.212640 -0.123149
C 0.384364 0.524612 0.005963
H -0.791697 2.863181 -0.634185
H -3.319174 2.403140 1.468052
H -3.786648 0.069207 0.929362
H -4.332698 -2.722987 -0.802022
H -1.023561 -2.986228 -0.770411
H 1.441674 -2.595505 -0.830624
H 4.636276 2.276926 0.118464
H 5.054433 0.593734 0.614897
H 4.939209 0.999160 -1.119059
H 0.810810 1.508137 0.218253