20
Extracted from mol_1598.out
O -3.762796 0.277167 -1.027408
B -2.951772 0.601894 0.022579
O -3.532987 1.188297 1.102822
C -1.421124 0.186505 -0.129232
C -1.179699 -0.825871 -1.084809
C 0.098424 -1.328343 -1.309466
C 1.184807 -0.830180 -0.593052
C 1.009707 0.186570 0.363047
S 2.369000 0.863089 1.294412
C 3.811748 -0.038120 0.652307
C -0.301928 0.670603 0.574960
I -0.522350 2.251293 2.031582
H -4.679251 0.528786 -0.850385
H -2.911844 1.434405 1.804931
H -2.027730 -1.210408 -1.653589
H 0.258163 -2.115479 -2.051246
H 2.177357 -1.237624 -0.784539
H 4.667416 0.373216 1.207102
H 3.748072 -1.118318 0.851954
H 3.966785 0.142517 -0.421968