31
Extracted from mol_245.out
O 2.409087 -2.404535 1.317144
B 1.452438 -1.535725 1.737288
O 1.072923 -1.559095 3.047803
C 0.687846 -0.531732 0.779407
C 1.279060 0.310665 -0.172284
O 2.674489 0.470228 -0.271611
C 3.457253 -0.453629 -0.866263
O 3.065491 -1.544286 -1.214765
C 4.871524 0.044831 -1.000151
C 0.519445 1.141110 -0.997987
C -0.870925 1.135935 -0.896981
C -1.519345 0.316219 0.041533
C -3.036715 0.310917 0.182668
C -3.570720 1.670004 0.669402
C -3.737432 -0.134150 -1.112775
C -0.719391 -0.491353 0.861050
H 2.561955 -2.370809 0.354782
H 1.549856 -2.244357 3.536777
H 4.887423 1.032833 -1.483831
H 5.306835 0.166081 0.004824
H 5.464044 -0.677566 -1.574063
H 1.030054 1.795887 -1.707677
H -1.450641 1.789929 -1.554299
H -3.278720 -0.434286 0.960513
H -3.097184 1.969113 1.617790
H -4.660780 1.626585 0.830327
H -3.375481 2.466698 -0.068131
H -3.381428 -1.123082 -1.442490
H -4.828349 -0.196086 -0.964699
H -3.555989 0.577863 -1.935444
H -1.206624 -1.124208 1.608824