30
Extracted from mol_493.out
O 0.914133 -2.373398 -0.536591
B 1.167247 -1.397741 0.398867
O 1.240834 -1.632352 1.759289
C 0.908250 0.114424 -0.064928
C 2.049103 0.872709 -0.399925
C 3.335126 0.126007 -0.244833
O 3.301611 -1.068244 0.058560
N 4.510266 0.771478 -0.444670
C 1.952542 2.189454 -0.870824
C 0.694724 2.772976 -1.011014
C -0.446989 2.038144 -0.686474
C -0.364895 0.712783 -0.214916
C -1.635928 -0.009698 0.093279
C -2.706358 0.023736 -0.820945
C -3.915703 -0.615682 -0.538573
C -4.083486 -1.298146 0.670172
C -3.029695 -1.338118 1.588212
C -1.817270 -0.703132 1.304555
H 1.037458 -3.275014 -0.217404
H 1.438628 -2.547800 1.990811
H 5.368099 0.249892 -0.310761
H 4.563927 1.765749 -0.611545
H 2.840596 2.764919 -1.147582
H 0.600575 3.799786 -1.373800
H -1.430130 2.505445 -0.785322
H -2.579386 0.540556 -1.775876
H -4.728877 -0.584629 -1.269210
H -5.030258 -1.797096 0.894545
H -3.152855 -1.864418 2.539101
H -1.001290 -0.742590 2.027800