44
Extracted from mol_549.out
O -1.191590 1.192725 -1.455271
B -0.060631 0.565507 -1.015601
O 0.971262 0.469300 -1.908536
C 0.050895 -0.055421 0.441429
C -1.110357 -0.322591 1.208914
O -2.309803 0.027605 0.636776
C -3.538350 -0.358928 1.234851
C -4.688918 -0.005220 0.320683
C -5.929205 0.347853 0.872677
C -7.025401 0.618512 0.048779
C -6.890454 0.550315 -1.341112
C -5.654539 0.209201 -1.899270
C -4.560921 -0.072276 -1.075351
C -1.057174 -0.907039 2.483198
C 0.188231 -1.225548 3.022556
C 1.364338 -0.965660 2.324221
C 1.294937 -0.379133 1.046145
O 2.406709 -0.079462 0.337528
C 3.687154 -0.420082 0.824637
C 4.743550 -0.040131 -0.189665
C 6.090404 -0.018129 0.204919
C 7.096291 0.289521 -0.713920
C 6.764650 0.585918 -2.040492
C 5.424120 0.571164 -2.435562
C 4.413687 0.258758 -1.518722
H -1.897539 1.145099 -0.791321
H 0.709572 0.876803 -2.746540
H -3.521897 -1.450202 1.421038
H -3.664972 0.139602 2.213015
H -6.039426 0.415582 1.959506
H -7.985041 0.893271 0.494840
H -7.744560 0.768761 -1.987598
H -5.538456 0.161238 -2.985342
H -3.595981 -0.326879 -1.518439
H -1.960957 -1.105019 3.056899
H 0.242396 -1.679507 4.015907
H 2.322582 -1.212591 2.778104
H 3.887047 0.093900 1.784828
H 3.737437 -1.509117 1.025724
H 6.356971 -0.241980 1.243294
H 8.141328 0.303451 -0.392150
H 7.549497 0.831180 -2.761292
H 5.158558 0.806474 -3.470236
H 3.364559 0.253173 -1.820305