25
Extracted from mol_129.out
O -0.575504 2.099450 1.685058
B -0.595102 1.703256 0.373586
O -0.771876 2.551524 -0.687897
C -0.688846 0.142660 0.083372
C 0.483106 -0.602802 -0.155359
C 1.764657 0.150568 -0.115055
O 1.831762 1.345070 0.106539
O 2.851708 -0.603066 -0.345704
C 4.109509 0.069719 -0.318177
C 0.439367 -1.981827 -0.416411
C -0.793154 -2.629134 -0.440210
C -1.965490 -1.902389 -0.204929
C -1.933344 -0.524277 0.057252
C -3.213212 0.240325 0.308678
H -0.502832 3.051961 1.821976
H -0.694626 3.490144 -0.477327
H 4.146679 0.861390 -1.082368
H 4.870225 -0.693914 -0.523791
H 4.286188 0.529514 0.666472
H 1.366359 -2.528125 -0.596725
H -0.846778 -3.702358 -0.641754
H -2.930542 -2.418234 -0.225772
H -3.199700 0.716526 1.303372
H -4.096102 -0.413996 0.256323
H -3.342451 1.048016 -0.431149