22
Extracted from mol_1673.out
O -1.843508 1.952586 1.766154
B -0.905405 1.803651 0.790102
O -0.257306 2.922720 0.355924
C -0.615915 0.345042 0.219043
C 0.712015 -0.142896 0.079875
S 2.056067 0.943131 0.565469
C 3.546746 0.119018 -0.064737
C 0.953035 -1.439891 -0.396989
C -0.110344 -2.270936 -0.763396
C -1.417329 -1.813229 -0.657213
C -1.669465 -0.519320 -0.170560
C -3.101960 -0.084487 -0.140304
O -4.023317 -0.803829 -0.458313
H -1.917719 2.875155 2.050417
H 0.478820 2.739984 -0.245749
H 4.368054 0.824651 0.126051
H 3.479907 -0.070547 -1.146315
H 3.757167 -0.817357 0.472827
H 1.971057 -1.820178 -0.485180
H 0.096977 -3.277851 -1.135934
H -2.270823 -2.428688 -0.948227
H -3.286752 0.963272 0.187052