23
Extracted from mol_800.out
O -1.617266 -3.013281 -0.659194
B -2.266673 -1.888451 -0.252130
O -3.582200 -2.002212 0.114626
C -1.469170 -0.529888 -0.219873
C -0.064756 -0.538179 -0.252497
C 0.655818 0.665478 -0.209159
C 2.152032 0.705153 -0.233090
O 2.811298 1.718880 -0.197286
O 2.700119 -0.523366 -0.300057
C 4.124702 -0.577281 -0.331466
C -0.015433 1.892441 -0.144716
C -1.414273 1.920099 -0.123246
O -2.022439 3.133642 -0.071530
C -2.126546 0.712915 -0.156604
H -2.183718 -3.795538 -0.616963
H -3.961371 -1.194393 0.478798
H 0.470376 -1.485748 -0.311016
H 4.389574 -1.640420 -0.392914
H 4.518734 -0.033918 -1.204284
H 4.554726 -0.128366 0.577459
H 0.551826 2.824018 -0.115680
H -2.981790 3.018272 -0.074642
H -3.223568 0.760140 -0.151702