26
Extracted from mol_448.out
O -4.840240 1.377428 0.832099
B -4.290001 0.210071 0.385823
O -5.167141 -0.757193 0.021149
C -2.706405 0.067199 0.267734
C -1.936031 1.230329 0.054073
C -0.549221 1.211403 -0.076926
C 0.161561 -0.000012 0.004052
C 1.642401 -0.043225 -0.126479
C 2.444190 0.985992 0.403534
C 3.834902 0.947011 0.283021
C 4.455716 -0.120820 -0.372478
C 3.673152 -1.149887 -0.905420
C 2.282620 -1.112000 -0.782846
C -0.579339 -1.177041 0.209749
C -1.968662 -1.129303 0.326738
Cl -2.783040 -2.679952 0.581423
H -4.191746 2.006616 1.165275
H -4.732978 -1.582964 -0.229905
H -2.450134 2.192479 -0.039765
H -0.013729 2.143072 -0.271856
H 1.974738 1.814421 0.939685
H 4.437689 1.752495 0.711065
H 5.544306 -0.150938 -0.467497
H 4.147554 -1.985301 -1.427331
H 1.682779 -1.910995 -1.225466
H -0.072942 -2.138885 0.301106