20
Extracted from mol_42.out
O 3.396451 0.818081 0.246344
B 2.510529 -0.219670 0.248849
O 3.007955 -1.483178 0.425860
C 0.980610 0.098419 0.057614
C 0.544635 1.435943 0.061119
C -0.809075 1.745795 -0.103115
O -1.273920 3.023438 -0.106365
C -1.746233 0.715370 -0.276869
C -1.342031 -0.623720 -0.287690
C -2.351917 -1.734664 -0.455746
C 0.023199 -0.913746 -0.120729
H 4.303770 0.515460 0.386072
H 2.329861 -2.167639 0.462196
H 1.277351 2.239099 0.191112
H -0.531940 3.631102 0.014082
H -2.796924 0.987074 -0.407166
H -3.312588 -1.356653 -0.836414
H -1.988654 -2.506409 -1.153683
H -2.552222 -2.238135 0.506483
H 0.331143 -1.965966 -0.146180