18
Extracted from mol_1361.out
O -2.382402 1.945693 -0.063591
B -2.268301 0.614017 0.185438
O -3.400671 -0.094754 0.474090
C -0.823795 -0.018716 0.127220
C -0.587044 -1.405767 0.188931
C 0.700693 -1.938046 0.138209
C 1.797578 -1.085802 0.011478
F 3.011060 -1.617712 -0.010926
C 1.589710 0.302162 -0.057656
N 2.714647 1.244560 -0.210562
O 3.743551 0.820865 -0.706704
O 2.527944 2.393386 0.157493
C 0.295184 0.820194 0.007440
H -3.293864 2.259583 0.008939
H -3.260169 -1.023051 0.690784
H -1.423964 -2.106969 0.275475
H 0.885321 -3.012781 0.196249
H 0.174523 1.903138 -0.038242