19
Extracted from mol_105.out
O -3.614007 0.689458 0.480524
B -2.809459 -0.317133 0.036203
O -3.440721 -1.467170 -0.335164
C -1.235563 -0.163647 -0.043205
C -0.373670 -1.259022 0.146837
C 1.012202 -1.111975 0.082278
C 1.616215 0.128689 -0.185740
C 3.114185 0.260999 -0.256086
C 0.747246 1.218947 -0.380168
Br 1.462159 2.955789 -0.759668
C -0.640377 1.083322 -0.306963
H -3.124352 1.443419 0.827803
H -2.846970 -2.111434 -0.736695
H -0.787837 -2.248027 0.368823
H 1.656237 -1.981100 0.245425
H 3.603465 -0.706962 -0.075183
H 3.486520 0.983631 0.488717
H 3.436027 0.634940 -1.242048
H -1.261298 1.967277 -0.476460