26
Extracted from mol_1734.out
O -1.977025 1.732813 -1.785810
B -0.694976 1.654761 -1.383580
O 0.183080 2.609962 -1.837652
C -0.047944 0.551349 -0.411087
C 1.327945 0.749958 -0.185674
C 2.102906 -0.089317 0.628777
S 3.831092 0.120971 0.937890
C 4.271070 1.604589 -0.014620
C 1.477138 -1.183618 1.253100
C 0.124293 -1.407243 1.052520
C -0.660674 -0.565650 0.232795
C -2.103296 -0.912595 0.096295
O -2.945770 -0.318306 -0.561935
O -2.450953 -2.004954 0.794945
C -3.817583 -2.410618 0.718836
H -2.518803 1.003143 -1.403974
H -0.278420 3.234027 -2.413279
H 1.789152 1.603321 -0.679240
H 4.103196 1.460888 -1.092027
H 3.722565 2.490770 0.336799
H 5.345494 1.755384 0.162827
H 2.052818 -1.856674 1.894254
H -0.350538 -2.257377 1.540847
H -4.100528 -2.640189 -0.319660
H -4.482661 -1.617825 1.093573
H -3.901580 -3.307564 1.345080