29
Extracted from mol_237.out
O 4.399878 -1.420345 0.529823
B 3.710992 -0.324891 0.100539
O 4.437022 0.758608 -0.326181
C 2.139742 -0.364096 0.109872
C 1.455901 -1.582770 0.221747
C 0.057228 -1.621787 0.218252
C -0.717659 -0.462127 0.109380
C -2.241074 -0.477154 0.082936
C -2.766020 -0.319273 -1.358909
C -2.863482 -1.705308 0.758789
C -0.029091 0.773353 0.002222
O -0.815817 1.884793 -0.095197
C -0.221018 3.158910 -0.161185
C 1.369740 0.812874 0.004175
H 5.355398 -1.295687 0.452911
H 3.895682 1.463211 -0.699956
H 2.025154 -2.510685 0.314214
H -0.442985 -2.588447 0.308650
H -2.568809 0.415705 0.641676
H -2.466617 -1.178975 -1.981794
H -2.373046 0.595904 -1.825726
H -3.867422 -0.260716 -1.369032
H -2.664369 -2.632592 0.196124
H -3.958211 -1.591453 0.813864
H -2.486065 -1.844412 1.784486
H 0.390303 3.376270 0.734032
H 0.414267 3.273276 -1.059086
H -1.042392 3.886830 -0.215177
H 1.872767 1.780981 -0.058395