22
Extracted from mol_1036.out
O 4.328326 0.499752 0.954753
B 3.598549 0.084960 -0.111023
O 4.257918 -0.484182 -1.168876
C 2.020323 0.175105 -0.087790
C 1.269269 -0.976968 -0.388672
C -0.128094 -1.016852 -0.369463
C -0.817149 0.158522 -0.046856
O -2.191736 0.303535 0.024149
C -3.121097 -0.652698 -0.265058
O -2.869005 -1.769650 -0.629834
C -4.503662 -0.088893 -0.052113
C -0.114861 1.335365 0.242713
C 1.278800 1.330683 0.221558
Cl 2.094347 2.847777 0.555522
H 5.276778 0.370767 0.814256
H 3.677934 -0.707574 -1.906507
H 1.800457 -1.901870 -0.636434
H -0.668810 -1.930286 -0.598847
H -4.630384 0.199197 1.003488
H -5.251013 -0.842829 -0.326894
H -4.638836 0.821358 -0.656287
H -0.668053 2.244780 0.478731