26
Extracted from mol_222.out
O 3.494576 1.713994 -0.278600
B 3.325060 0.396939 0.026701
O 4.428603 -0.362793 0.299460
C 1.916612 -0.314441 0.083186
C 1.834923 -1.682456 0.400366
C 0.610738 -2.347200 0.448655
C -0.567285 -1.643910 0.180313
C -0.552591 -0.277949 -0.134587
C -1.829825 0.523484 -0.381751
C -2.206202 1.369093 0.853899
C -3.022673 -0.325473 -0.840276
C 0.706531 0.361218 -0.176144
O 0.795389 1.703663 -0.473681
H 2.638489 2.138024 -0.449337
H 5.237363 0.162752 0.238761
H 2.762651 -2.221737 0.606561
H 0.566555 -3.411759 0.692153
H -1.521353 -2.173711 0.218404
H -1.626685 1.224780 -1.219313
H -3.086025 2.001469 0.649251
H -1.379506 2.024564 1.170716
H -2.447622 0.712201 1.705086
H -3.868793 0.324180 -1.115109
H -2.770465 -0.946123 -1.714142
H -3.374590 -0.993819 -0.037911
H -0.063873 2.045013 -0.752662