26
Extracted from mol_1775.out
O -0.037577 -2.612396 0.444011
B -0.257496 -1.688229 -0.534866
O -0.552474 -2.003853 -1.848630
C -0.511511 -0.181596 -0.093170
C -1.807897 0.303027 0.208827
B -3.111034 -0.595264 0.052608
O -4.192713 -0.427880 0.872862
O -3.231997 -1.551092 -0.905254
C -1.938109 1.642189 0.629036
C -0.836078 2.494193 0.750226
C 0.438214 2.017581 0.447742
C 0.591622 0.687825 0.027978
C 1.912434 0.119175 -0.347136
O 2.043745 -1.012691 -0.777547
O 2.944373 0.956456 -0.181934
C 4.234806 0.460278 -0.541006
H 0.073399 -3.522013 0.141704
H -0.378477 -2.920281 -2.100584
H -4.022905 0.185390 1.596386
H -2.464154 -1.616407 -1.495275
H -2.933882 2.040898 0.852586
H -0.973320 3.530040 1.071761
H 1.313988 2.664191 0.526458
H 4.493559 -0.424083 0.061138
H 4.941318 1.276127 -0.343924
H 4.262167 0.178415 -1.604712