22
Extracted from mol_1664.out
O 3.482409 -0.384136 0.352078
B 2.429148 0.219299 -0.280171
O 2.673625 1.262184 -1.103792
C 0.998179 -0.434205 -0.009357
C 1.001473 -1.786524 0.387211
C -0.177512 -2.503539 0.610309
C -1.405018 -1.876969 0.429370
C -1.461254 -0.524989 0.049941
C -2.816401 0.046641 -0.214252
O -3.848697 -0.535895 0.033782
C -0.260779 0.202211 -0.147056
C -0.317850 1.678090 -0.479481
O 0.206480 2.158102 -1.481257
N -0.974160 2.456042 0.417936
H 4.317982 0.033984 0.102720
H 1.860890 1.632654 -1.509000
H 1.966712 -2.279949 0.521288
H -0.133338 -3.553489 0.911705
H -2.350032 -2.409065 0.560703
H -2.840818 1.056438 -0.688609
H -1.339255 2.086785 1.286342
H -1.011782 3.456330 0.249587