23
Extracted from mol_1845.out
O -4.150451 0.231962 0.072698
B -3.218922 -0.666102 0.496265
O -3.677170 -1.678945 1.284047
C -1.688564 -0.543714 0.098165
C -0.876809 -1.677989 -0.071669
C 0.467731 -1.560100 -0.428189
C 1.061329 -0.302938 -0.612191
S 2.790768 -0.246692 -1.107726
C 3.608318 -0.170300 0.529368
C 0.260832 0.850595 -0.451282
C 0.820234 2.247478 -0.657520
F 1.260211 2.436644 -1.908420
F 1.844339 2.510067 0.178514
F -0.114012 3.190732 -0.425575
C -1.088229 0.711852 -0.104406
H -3.810040 0.875761 -0.558570
H -2.975989 -2.233979 1.643016
H -1.300833 -2.679689 0.055641
H 1.081829 -2.451523 -0.575634
H 3.333914 0.752375 1.058036
H 3.363969 -1.052114 1.139623
H 4.688960 -0.163593 0.323565
H -1.681416 1.620210 0.022245