20
Extracted from mol_1928.out
O 2.891804 1.322884 0.053102
B 2.213764 0.406915 -0.694329
O 2.823182 -0.054705 -1.800386
C 0.706518 0.031598 -0.254806
C -0.054299 1.112731 0.234807
C -1.369808 0.946092 0.659403
N -2.123411 2.130144 1.145744
O -3.280591 1.952170 1.483000
O -1.532941 3.195810 1.176080
C -1.999097 -0.296815 0.654595
C -1.270784 -1.390977 0.198527
C 0.037445 -1.209626 -0.264353
N 0.687348 -2.444291 -0.772443
O 1.430724 -2.350071 -1.742086
O 0.411849 -3.488924 -0.217550
H 2.457826 1.589793 0.870236
H 2.332668 -0.788475 -2.203893
H 0.369719 2.116925 0.279387
H -3.027353 -0.390100 1.003121
H -1.704562 -2.391079 0.191844