23
Extracted from mol_190.out
O -2.201536 -2.600192 -1.142415
B -2.367680 -1.338992 -0.633778
O -3.589479 -0.752044 -0.438028
C -1.083236 -0.521205 -0.256224
C 0.199068 -1.071976 -0.417970
C 1.367284 -0.363080 -0.082788
B 2.798546 -1.007149 -0.276074
O 3.046301 -1.943255 -1.237419
O 3.863686 -0.663363 0.506382
C 1.212250 0.939669 0.425597
C -0.047074 1.536198 0.599002
C -0.169292 2.935762 1.154610
C -1.180423 0.787784 0.252523
H -3.010468 -3.078557 -1.358849
H -4.356704 -1.282130 -0.683908
H 0.276092 -2.093317 -0.805965
H 2.287732 -2.091573 -1.813557
H 3.618663 -0.073109 1.227672
H 2.103499 1.526483 0.681071
H 0.051869 2.957655 2.236376
H -1.184802 3.337023 1.018006
H 0.538155 3.627241 0.668189
H -2.172451 1.232129 0.377549