26
Extracted from mol_459.out
O 5.099680 0.145277 -0.742705
B 4.217886 -0.480907 0.095417
O 4.721656 -1.334805 1.029842
C 2.655886 -0.277321 0.044396
C 1.810091 -1.021927 0.886918
C 0.428166 -0.854206 0.846760
C -0.191613 0.060403 -0.030408
C -1.678527 0.177078 -0.015106
C -2.446277 -0.034111 -1.174590
C -3.840564 0.028001 -1.126334
C -4.493495 0.307758 0.078699
C -3.741997 0.518182 1.238145
C -2.346832 0.448111 1.192265
C 0.662461 0.812926 -0.862045
Br -0.016864 2.158219 -2.047109
C 2.049490 0.644514 -0.824532
H 4.693410 0.721886 -1.399586
H 5.684754 -1.400525 0.980778
H 2.249168 -1.745914 1.577278
H -0.211214 -1.456255 1.497549
H -1.946179 -0.260262 -2.118662
H -4.420927 -0.146482 -2.036394
H -5.584991 0.360184 0.113352
H -4.242557 0.740344 2.184483
H -1.763574 0.620257 2.100672
H 2.652963 1.269575 -1.489080