18
Extracted from mol_1636.out
O -2.590515 -0.501122 -1.094479
B -1.910033 -0.437613 0.087332
O -2.440145 -0.666885 1.324352
C -0.323766 -0.352103 -0.004719
C 0.482216 -1.494766 -0.130679
C 1.875647 -1.409446 -0.209675
C 2.500159 -0.155801 -0.163364
I 4.616686 -0.022325 -0.282677
C 1.741303 1.006623 -0.039249
C 0.352955 0.870329 0.036214
N -0.457952 2.098628 0.168721
O -1.674951 1.952951 0.234802
O 0.109381 3.173787 0.205379
H -3.551494 -0.549586 -1.021216
H -3.403246 -0.712038 1.364584
H 0.015193 -2.482783 -0.168662
H 2.472909 -2.318166 -0.307124
H 2.185656 2.000319 0.000459