27
Extracted from mol_525.out
O 4.838853 0.899316 0.121815
B 3.703396 0.429471 0.708904
O 3.715402 0.355320 2.068432
C 2.437929 -0.003892 -0.144374
C 2.576771 -0.599041 -1.412899
C 1.459861 -0.982669 -2.148690
C 0.162162 -0.773726 -1.641357
C -0.947821 -1.147211 -2.476374
N -1.808981 -1.463993 -3.188540
C -0.020099 -0.178665 -0.365366
C -1.362696 0.069625 0.228774
C -1.652213 1.316633 0.815607
C -2.895728 1.560062 1.402325
C -3.871936 0.559065 1.419657
C -3.595856 -0.685021 0.844680
C -2.354425 -0.928415 0.252942
C 1.135530 0.187536 0.346227
H 4.755079 1.028069 -0.829630
H 2.934077 -0.071481 2.437709
H 3.572161 -0.781696 -1.829676
H 1.574938 -1.442748 -3.132509
H -0.901789 2.111003 0.790430
H -3.104717 2.538775 1.842277
H -4.845715 0.748578 1.878796
H -4.350935 -1.475270 0.857781
H -2.150250 -1.909768 -0.179728
H 0.997003 0.640143 1.332785