23
Extracted from mol_729.out
O 4.393871 0.828454 -0.864397
B 3.569996 0.155283 -0.003012
O 4.147410 -0.665938 0.920631
C 2.000815 0.269070 -0.023673
C 1.321370 1.216489 -0.809264
C -0.074628 1.283302 -0.810810
C -0.814563 0.406940 -0.022952
O -2.193378 0.515059 0.018464
C -2.952572 -0.493644 -0.522594
O -2.490046 -1.402153 -1.151971
C -4.407311 -0.267812 -0.204726
C -0.164921 -0.545860 0.785469
O -0.941347 -1.353466 1.548653
C 1.230922 -0.601295 0.770903
H 3.928170 1.352437 -1.526182
H 5.110408 -0.680560 0.838945
H 1.874603 1.927629 -1.431757
H -0.611058 2.015558 -1.418309
H -4.703258 0.759009 -0.467447
H -4.560612 -0.384970 0.879962
H -5.020717 -0.996686 -0.748002
H -0.383128 -1.997582 2.004205
H 1.739977 -1.339263 1.399512