20
Extracted from mol_1365.out
O -2.248040 -2.221017 -0.155465
B -1.056735 -1.652440 -0.478265
O -0.208131 -2.442375 -1.223811
C -0.636516 -0.176759 -0.079135
C 0.697533 0.317654 0.089943
B 2.063672 -0.507597 -0.029805
O 2.247361 -1.703865 -0.633087
O 3.160969 0.094718 0.530208
C 0.878371 1.672451 0.436289
C -0.192298 2.551543 0.609590
C -1.497055 2.084901 0.465192
C -1.673202 0.745802 0.141119
F -2.967891 0.325420 0.030636
H -2.861408 -1.602268 0.262697
H -0.598282 -3.309812 -1.405298
H 1.430595 -2.085677 -1.008993
H 3.947930 -0.451607 0.401755
H 1.896539 2.037578 0.577925
H -0.012102 3.598728 0.867252
H -2.371311 2.724620 0.601252