20
Extracted from mol_171.out
O 3.629265 0.475168 0.245501
B 2.619337 -0.441600 0.148479
O 2.811763 -1.784373 -0.025430
C 1.139972 0.083357 0.243790
C 0.867571 1.452203 0.421365
C -0.444135 1.910932 0.505967
C -1.515993 1.002891 0.413931
C -2.863971 1.493241 0.503388
N -3.956207 1.883364 0.574352
C -1.278649 -0.382965 0.234607
C -2.422451 -1.359672 0.133981
C 0.053162 -0.805685 0.154108
H 4.527057 0.128187 0.183908
H 3.728405 -2.079426 -0.079668
H 1.695755 2.161168 0.493488
H -0.655834 2.973646 0.643749
H -3.052375 -1.336126 1.038793
H -3.084656 -1.116365 -0.713520
H -2.054800 -2.386868 -0.001579
H 0.256785 -1.871076 0.015542