23
Extracted from mol_50.out
O 2.893645 0.654017 0.707906
B 2.400040 -0.565485 0.352481
O 3.264117 -1.601660 0.141595
C 0.851970 -0.840172 0.198003
C 0.372132 -2.160416 0.110131
C -0.995660 -2.428046 0.052159
C -1.912366 -1.373777 0.094500
C -1.488575 -0.038691 0.173363
C -2.480220 1.096678 0.247130
C -0.100887 0.197912 0.208564
O 0.347135 1.515303 0.307321
C 0.469502 2.211015 -0.930502
H 2.153147 1.273360 0.838501
H 4.179940 -1.331816 0.293078
H 1.094351 -2.980580 0.097596
H -1.353975 -3.459056 -0.010664
H -2.985838 -1.586102 0.074911
H -2.133124 1.881309 0.936297
H -2.634520 1.575391 -0.736301
H -3.462569 0.738150 0.589118
H -0.498099 2.276220 -1.455653
H 1.202765 1.718870 -1.593232
H 0.817091 3.227577 -0.696301