18
Extracted from mol_840.out
O 2.503041 -1.988205 0.718553
B 2.249058 -0.711443 0.323531
O 3.308173 0.127280 0.118227
C 0.740817 -0.285648 0.121436
C 0.363528 1.057917 -0.048108
C -0.985480 1.403531 -0.228737
C -1.361584 2.780721 -0.398524
N -1.661414 3.894564 -0.533922
C -1.976310 0.404433 -0.244255
C -1.610186 -0.935376 -0.073027
O -2.513702 -1.944694 -0.075482
C -0.259291 -1.269392 0.111295
H 3.450072 -2.164640 0.800433
H 3.076619 1.001195 -0.216209
H 1.103809 1.862280 -0.029875
H -3.024433 0.681552 -0.387416
H -3.404748 -1.593440 -0.206682
H 0.002029 -2.320635 0.248761