26
Extracted from mol_464.out
O 4.053553 1.285009 -1.026722
B 3.790829 0.334392 -0.093513
O 4.863035 -0.233438 0.537746
C 2.361842 -0.223388 0.344000
C 2.408336 -1.351123 1.194921
C 1.257463 -1.981050 1.660881
C 0.007472 -1.486557 1.295779
C -0.114087 -0.360200 0.462115
C -1.493811 0.117400 0.130540
C -2.273075 -0.567236 -0.816661
C -3.578427 -0.153028 -1.098161
C -4.125430 0.946740 -0.430757
C -3.361028 1.629535 0.520970
C -2.055406 1.217889 0.800306
C 1.074291 0.239579 -0.002877
I 0.819970 1.930122 -1.331704
H 3.264390 1.672165 -1.438923
H 5.692917 0.142397 0.215314
H 3.390294 -1.728922 1.484885
H 1.332914 -2.855157 2.312929
H -0.905458 -1.964337 1.660843
H -1.847462 -1.427153 -1.340749
H -4.170089 -0.693183 -1.842287
H -5.146773 1.269930 -0.649394
H -3.784019 2.486790 1.051753
H -1.462240 1.752824 1.546649