32
Extracted from mol_418.out
O 3.405574 -3.273874 0.386439
B 3.116872 -1.936340 0.464072
O 4.137606 -1.086153 0.769376
C 1.649714 -1.393618 0.266608
C 0.541450 -2.171763 0.655827
C -0.769581 -1.713228 0.538228
C -1.036558 -0.436913 0.007644
C -2.427942 0.074092 -0.116060
C -2.721179 1.431554 0.118119
C -4.027257 1.913044 0.005406
C -5.069398 1.049184 -0.345834
C -4.793888 -0.301409 -0.581778
C -3.488185 -0.783505 -0.467002
C 0.055304 0.347573 -0.402182
C 1.358482 -0.126844 -0.268071
O 2.416243 0.633400 -0.750283
C 2.773726 1.788207 -0.106823
O 2.139906 2.272511 0.789407
C 4.064088 2.312127 -0.678730
H 2.660159 -3.813811 0.098413
H 4.968879 -1.565791 0.892021
H 0.710387 -3.159418 1.098461
H -1.594466 -2.336672 0.890167
H -1.919556 2.110654 0.419032
H -4.233047 2.968872 0.201468
H -6.091595 1.426546 -0.434696
H -5.600124 -0.983737 -0.864757
H -3.282347 -1.836095 -0.676722
H -0.106460 1.327925 -0.851582
H 4.262351 3.318360 -0.290058
H 4.027170 2.317388 -1.778149
H 4.873674 1.627735 -0.378714