27
Extracted from mol_306.out
O 4.209085 -1.513199 0.261372
B 3.540229 -0.337528 0.044289
O 4.283438 0.782926 -0.170827
C 1.961324 -0.283532 -0.015830
C 1.294586 -1.340428 -0.664167
C -0.095798 -1.366204 -0.801149
C -0.896292 -0.336592 -0.280781
C -2.411993 -0.365368 -0.429972
C -3.120861 -0.418311 0.935052
C -2.921805 0.812906 -1.279067
C -0.245121 0.713379 0.378340
C 1.150956 0.753604 0.511745
C 1.733036 1.906437 1.262736
O 1.069783 2.805974 1.732694
H 3.628625 -2.254818 0.470414
H 5.233023 0.601392 -0.125064
H 1.875445 -2.161107 -1.098733
H -0.569185 -2.202768 -1.324728
H -2.662261 -1.295697 -0.969926
H -2.784874 -1.282340 1.530245
H -4.212406 -0.499217 0.803104
H -2.923794 0.492042 1.524898
H -2.712249 1.778842 -0.790569
H -4.012191 0.743117 -1.426250
H -2.444110 0.829191 -2.271500
H -0.807878 1.541326 0.817364
H 2.841284 1.895974 1.376306