27
Extracted from mol_367.out
O 4.601260 -0.323459 -0.527706
B 3.753637 -0.040209 0.505893
O 4.294063 0.265930 1.717695
C 2.181530 -0.049713 0.384978
C 1.369737 0.128492 1.522064
C -0.020475 0.107728 1.434803
C -0.702611 -0.062753 0.214700
C -2.229473 -0.072936 0.193066
C -2.838612 -0.858430 1.366619
C -2.775890 1.367098 0.139505
C 0.124748 -0.217621 -0.918834
N -0.424776 -0.375840 -2.283530
O -1.482445 0.176089 -2.551773
O 0.229637 -1.032894 -3.078999
C 1.521447 -0.233147 -0.834355
H 4.171603 -0.568915 -1.355056
H 5.260349 0.238233 1.703055
H 1.846400 0.278044 2.494044
H -0.605664 0.227307 2.348573
H -2.548403 -0.568769 -0.733006
H -2.422565 -1.876130 1.437139
H -3.927311 -0.948342 1.223354
H -2.683451 -0.359837 2.337069
H -2.484305 1.937206 1.037630
H -2.398032 1.894895 -0.747485
H -3.876842 1.355915 0.087411
H 2.066449 -0.387943 -1.767922