36
Extracted from mol_578.out
O -3.913869 -2.955715 -1.726423
B -2.589938 -2.640496 -1.598662
O -1.674457 -3.482874 -2.159139
C -2.061079 -1.364052 -0.838859
C -2.956706 -0.421523 -0.306123
C -2.453020 0.700981 0.365465
O -3.215952 1.714015 0.934038
C -4.572344 1.777791 0.979165
O -5.322691 0.953312 0.524503
C -4.994599 3.042071 1.687035
C -1.078969 0.890539 0.511620
C -0.181848 -0.048217 -0.019045
O 1.135376 0.223536 0.171313
C 2.111260 -0.677135 -0.319641
C 3.493661 -0.188143 0.047560
C 3.709877 0.615992 1.175477
C 5.004222 1.016184 1.520831
C 6.098027 0.614895 0.747847
C 5.889355 -0.186132 -0.379334
C 4.594769 -0.580015 -0.728471
C -0.674511 -1.173322 -0.695768
H -4.514605 -2.336604 -1.294698
H -2.097901 -4.235563 -2.593262
H -4.033741 -0.533958 -0.401667
H -4.577485 3.060376 2.705954
H -6.089434 3.090353 1.726060
H -4.595444 3.920805 1.156709
H -0.700063 1.769400 1.034869
H 1.940898 -1.683947 0.111966
H 2.024939 -0.779915 -1.417537
H 2.855018 0.934464 1.774642
H 5.158490 1.647183 2.400581
H 7.109404 0.928957 1.019604
H 6.736864 -0.499036 -0.995278
H 4.438533 -1.197597 -1.618692
H -0.002038 -1.916610 -1.122697