16
Extracted from mol_1562.out
O -2.839445 0.534773 1.146376
B -2.131569 0.123470 0.065064
O -2.863910 -0.340351 -0.987621
C -0.536749 0.048274 0.009576
C -0.002515 -1.187994 -0.406247
C 1.372187 -1.413264 -0.471882
C 2.255496 -0.389768 -0.134812
C 1.763045 0.858690 0.273427
I 3.227472 2.332835 0.737698
C 0.375285 1.071976 0.351468
I -0.405526 2.971024 0.963538
H -2.293122 0.899314 1.853436
H -2.326166 -0.572189 -1.753107
H -0.689255 -1.997651 -0.671095
H 1.761664 -2.384634 -0.787228
H 3.333109 -0.554507 -0.188591