26
Extracted from mol_351.out
O 0.935444 2.720948 0.476950
B 1.099492 1.716691 -0.432026
O 1.331272 1.905232 -1.762998
C 1.009590 0.221118 0.087610
C 2.204184 -0.484721 0.370428
C 3.472944 0.176719 0.205867
N 4.489946 0.723151 0.074311
C 2.181147 -1.816334 0.821827
C 0.954635 -2.453537 0.988334
C -0.232361 -1.768964 0.713734
C -0.226320 -0.436998 0.267790
C -1.529320 0.285944 -0.072828
C -1.918670 0.041878 -1.544417
C -2.692448 -0.052333 0.871758
H 1.021768 3.620219 0.135144
H 1.442547 2.820683 -2.050535
H 3.118253 -2.333687 1.037649
H 0.920126 -3.488809 1.337164
H -1.183074 -2.288406 0.853598
H -1.331043 1.365537 0.044803
H -2.112970 -1.028624 -1.725659
H -1.116330 0.358972 -2.228445
H -2.833631 0.599854 -1.805285
H -2.412342 0.090093 1.927502
H -3.036531 -1.092519 0.748877
H -3.556310 0.597895 0.658845