21
Extracted from mol_179.out
O -2.629630 0.467344 -0.923713
B -1.761648 0.574326 0.131682
O -2.270890 0.749241 1.381670
C -0.214511 0.200345 0.020426
C 0.768134 1.177948 -0.165477
N 0.318880 2.578509 -0.291505
O -0.894206 2.772952 -0.309346
O 1.155475 3.457645 -0.377955
C 2.136982 0.913339 -0.246540
C 2.546025 -0.413143 -0.139787
C 1.595629 -1.424163 0.046356
C 0.223354 -1.140538 0.131874
C -0.778983 -2.248692 0.359074
H -2.199755 0.382618 -1.781962
H -3.218259 0.943256 1.357636
H 2.839277 1.734063 -0.390280
H 3.607705 -0.664198 -0.201928
H 1.929347 -2.462522 0.130269
H -1.598076 -2.200474 -0.376427
H -1.243733 -2.156313 1.355109
H -0.311115 -3.241539 0.290823