24
Extracted from mol_739.out
O 4.625675 0.317129 0.689551
B 3.754617 -0.639034 0.248665
O 4.313874 -1.829719 -0.111626
C 2.199991 -0.380787 0.156760
C 1.267467 -1.417793 0.329508
C -0.111781 -1.200955 0.255793
C -0.607377 0.084113 -0.010085
N -1.964318 0.419072 -0.114139
C -3.068109 -0.401394 0.005159
O -3.004212 -1.593421 0.238967
C -4.390117 0.326393 -0.196828
C 0.317420 1.141708 -0.192443
O -0.221384 2.371361 -0.457867
C 1.686356 0.906756 -0.103037
H 4.177522 1.090078 1.050229
H 3.675728 -2.435117 -0.506170
H 1.616229 -2.431944 0.549788
H -0.822407 -2.011647 0.401419
H -2.130815 1.400222 -0.311397
H -5.208889 -0.370334 0.020272
H -4.471781 1.205332 0.463427
H -4.484490 0.677123 -1.238248
H 0.482576 3.021609 -0.578292
H 2.368226 1.751253 -0.263608