20
Extracted from mol_1420.out
O -3.751186 -0.892007 -0.548318
B -2.727830 -0.799693 0.346750
O -2.963656 -1.314745 1.583555
C -1.339960 -0.127792 -0.030008
C -0.142656 -0.554339 0.567453
C 1.092577 0.020534 0.238884
C 2.317988 -0.514520 0.943450
O 2.225123 -1.159580 1.973598
N 3.524106 -0.222333 0.368615
C 1.136820 1.074706 -0.685048
C -0.048494 1.516000 -1.278777
Cl 0.006419 2.841652 -2.420073
C -1.272906 0.920740 -0.967045
H -3.512361 -0.609319 -1.437951
H -2.248469 -1.159119 2.211098
H -0.133214 -1.360932 1.305360
H 3.598041 0.090481 -0.590062
H 4.345673 -0.634261 0.796765
H 2.071508 1.582064 -0.930088
H -2.177523 1.302464 -1.448159