22
Extracted from mol_987.out
O -1.494511 -3.362427 -0.141484
B -1.667051 -2.021290 0.035728
O -2.909606 -1.530559 0.283996
C -0.374426 -1.108701 -0.062477
C 0.871859 -1.702765 -0.319589
C 2.051253 -0.960317 -0.418483
C 1.961934 0.418183 -0.252480
N 3.190517 1.240538 -0.350350
O 3.075720 2.448337 -0.206652
O 4.241108 0.660777 -0.567986
C 0.755219 1.070620 0.005008
C -0.408655 0.300190 0.098561
O -1.631028 0.859775 0.349550
C -1.749033 2.263509 0.507891
H -2.329492 -3.843547 -0.066028
H -2.877294 -0.565498 0.387637
H 0.907838 -2.787264 -0.445251
H 3.017728 -1.421489 -0.617625
H 0.767786 2.151282 0.123056
H -2.813241 2.468066 0.684398
H -1.422773 2.800190 -0.399239
H -1.163852 2.622394 1.371822