18
Extracted from mol_1492.out
O 3.138957 1.171380 -0.255472
B 2.375361 0.128685 0.168905
O 3.001798 -0.950798 0.725558
C 0.810156 0.243067 -0.009178
C -0.065614 -0.827756 0.236674
C -1.450139 -0.694442 0.070282
C -2.353387 -1.845401 0.334954
O -3.556057 -1.817225 0.220387
C -1.992725 0.531609 -0.349455
C -1.133225 1.598582 -0.597992
Br -1.850174 3.271763 -1.170927
C 0.250801 1.462959 -0.435105
H 4.081561 1.025877 -0.097495
H 2.414395 -1.642322 1.050301
H 0.319730 -1.802815 0.558639
H -1.825935 -2.780793 0.661646
H -3.074015 0.617790 -0.472170
H 0.908511 2.309837 -0.639553