28
Extracted from mol_346.out
O 3.755245 1.425041 1.614094
B 3.289348 0.961783 0.412662
O 4.120402 0.984678 -0.659289
C 1.781572 0.512416 0.230526
C 0.769961 1.431546 0.566318
C -0.584725 1.134608 0.405683
C -0.994669 -0.114306 -0.085405
C -2.467204 -0.459224 -0.269370
C -3.135610 0.440192 -1.324561
C -3.237356 -0.427310 1.062553
C 0.003652 -1.046420 -0.400830
C 1.362039 -0.743853 -0.251838
C 2.380009 -1.800207 -0.624357
F 2.874268 -1.620652 -1.859458
F 3.428970 -1.801387 0.227577
F 1.852540 -3.039845 -0.592092
H 3.117007 1.335560 2.331696
H 5.008159 1.288935 -0.424223
H 1.050184 2.417195 0.952150
H -1.330373 1.889741 0.670250
H -2.505216 -1.495478 -0.648077
H -3.143988 1.496073 -1.006273
H -4.181945 0.134646 -1.489527
H -2.608384 0.386289 -2.290104
H -3.253629 0.587340 1.494535
H -4.283931 -0.740554 0.914298
H -2.782699 -1.100792 1.806275
H -0.283627 -2.036013 -0.763213