24
Extracted from mol_1062.out
O -3.811285 -1.508035 0.176672
B -2.785454 -1.188526 -0.670142
O -2.795077 -1.726364 -1.919154
C -1.662826 -0.151403 -0.245890
C -2.113489 1.085128 0.249245
C -1.215707 2.093034 0.611334
C 0.157297 1.870542 0.513409
C 0.628477 0.641548 0.050865
O 1.990501 0.490895 -0.071264
C 2.658639 -0.334381 0.810620
O 2.150402 -0.757005 1.809077
C 4.058404 -0.579677 0.326968
C -0.264766 -0.381774 -0.341323
C 0.218935 -1.693283 -0.854881
O 1.375262 -2.052136 -0.925920
H -3.717244 -1.131245 1.060138
H -3.553974 -2.311206 -2.057946
H -3.187680 1.277006 0.331557
H -1.586406 3.055150 0.975089
H 0.883138 2.636147 0.794720
H 4.656197 -1.024090 1.132080
H 3.995916 -1.280070 -0.520714
H 4.517621 0.351404 -0.035773
H -0.596880 -2.370751 -1.198764