17
Extracted from mol_1624.out
O 3.048169 -0.675451 -0.409158
B 2.223828 0.191901 0.247922
O 2.781515 1.144998 1.040984
C 0.646228 0.163238 0.139513
C -0.045656 -0.895537 -0.465331
C -1.449374 -0.892741 -0.548055
C -2.138377 -1.990118 -1.170887
N -2.687710 -2.878914 -1.677529
C -2.183752 0.186165 -0.020614
C -1.496661 1.239858 0.584512
I -2.596679 2.873023 1.386374
C -0.101793 1.233166 0.670139
H 2.609184 -1.294676 -1.003153
H 3.747638 1.106362 1.041555
H 0.489487 -1.755451 -0.878257
H -3.272435 0.185466 -0.088690
H 0.426389 2.058709 1.150675