17
Extracted from mol_751.out
O 3.195835 0.574252 -0.618796
B 2.312626 -0.168521 0.094725
O 2.848399 -1.109367 0.922990
C 0.735189 0.032973 -0.025186
C 0.157153 1.100443 -0.727156
F 0.964098 2.010822 -1.338524
C -1.214832 1.289741 -0.838788
C -2.078415 0.374329 -0.232982
C -1.554165 -0.717084 0.474269
O -2.335135 -1.647757 1.082648
C -0.164097 -0.870850 0.566402
H 2.759247 1.240287 -1.164596
H 2.202657 -1.586087 1.454496
H -1.596089 2.146940 -1.397399
H -3.161603 0.509759 -0.313612
H -3.267468 -1.436303 0.942682
H 0.196602 -1.743579 1.118828