20
Extracted from mol_1330.out
O 2.231926 -2.154867 -0.254949
B 2.176525 -1.010107 0.474042
O 3.227905 -0.793591 1.319268
C 1.014719 0.069907 0.338682
C 1.368816 1.425799 0.477894
C 0.460105 2.474486 0.318955
C -0.856399 2.146086 0.017514
F -1.760793 3.122186 -0.141304
C -1.274664 0.825011 -0.125556
C -0.343684 -0.212418 0.027704
S -0.829661 -1.926987 -0.113030
C -2.457304 -1.860465 -0.918010
H 1.459739 -2.284184 -0.823926
H 3.105333 -0.024676 1.886566
H 2.411653 1.679157 0.694275
H 0.754041 3.521076 0.416310
H -2.326271 0.645365 -0.346968
H -3.224024 -1.435096 -0.253996
H -2.418803 -1.299699 -1.863502
H -2.719161 -2.906982 -1.129971