20
Extracted from mol_1641.out
O -0.647710 2.708992 -0.157447
B -1.065934 1.631542 0.559303
O -1.730488 1.854015 1.726771
C -0.755858 0.120342 0.156489
C 0.577196 -0.277851 -0.162631
B 1.789391 0.711919 -0.364624
O 3.005832 0.533626 0.227834
O 1.672292 1.755629 -1.249307
C 0.873861 -1.637907 -0.375120
C -0.122467 -2.612958 -0.328258
C -1.440075 -2.236807 -0.068575
C -1.737225 -0.890395 0.173800
I -3.816134 -0.454954 0.475732
H -0.036801 2.494516 -0.882116
H -1.855787 2.800389 1.884193
H 3.018950 -0.188748 0.867785
H 2.484867 2.279017 -1.311676
H 1.900461 -1.938749 -0.608507
H 0.118201 -3.664357 -0.508288
H -2.232573 -2.987259 -0.055360