24
Extracted from mol_1236.out
O -4.267100 -0.508330 -0.059769
B -3.020745 -1.001116 0.179223
O -2.900453 -2.294450 0.598523
C -1.791716 -0.032832 -0.046116
C -2.014781 1.299365 -0.427835
C -0.927767 2.166493 -0.628041
C -1.148744 3.533298 -1.017709
N -1.322461 4.637544 -1.332413
C 0.386895 1.705458 -0.449036
C 0.625509 0.376254 -0.069558
N 1.962823 -0.029496 0.093580
C 2.457478 -1.266664 0.465070
O 1.754758 -2.227221 0.717631
C 3.976673 -1.325502 0.521040
C -0.472495 -0.481850 0.128648
H -4.956771 -1.165082 0.106506
H -1.996574 -2.587976 0.764066
H -3.034005 1.662465 -0.569530
H 1.221772 2.393120 -0.608646
H 2.653417 0.690206 -0.087858
H 4.409093 -1.184752 -0.483716
H 4.272653 -2.310187 0.902324
H 4.385744 -0.541001 1.178668
H -0.253201 -1.507743 0.421084