37
Extracted from mol_589.out
O -1.829224 -0.863078 -3.034261
B -2.599039 -0.370238 -2.015631
O -3.965030 -0.199862 -2.150345
C -1.892846 0.004428 -0.669695
C -2.544414 0.522408 0.481967
N -3.936683 0.731613 0.449203
C -4.770815 1.215042 1.429529
O -4.417916 1.558709 2.545010
C -6.235239 1.295885 1.012904
C -1.785198 0.816578 1.635147
C -0.413146 0.606101 1.649587
C 0.252027 0.097155 0.522205
O 1.600404 -0.072226 0.639453
C 2.334014 -0.556391 -0.463173
C 3.806393 -0.622206 -0.122606
C 4.662453 -1.395177 -0.922470
C 6.033619 -1.442570 -0.660439
C 6.567465 -0.721184 0.412924
C 5.719567 0.045095 1.217348
C 4.347119 0.096916 0.951472
C -0.493851 -0.198008 -0.619873
H -2.292292 -1.084852 -3.850057
H -4.345601 -0.446978 -3.001737
H -4.374036 0.484759 -0.433403
H -6.430401 0.975354 -0.021346
H -6.829821 0.675196 1.701332
H -6.577851 2.334386 1.140603
H -2.295674 1.211385 2.510459
H 0.172272 0.834049 2.543633
H 2.183395 0.107161 -1.339438
H 1.972870 -1.560354 -0.760352
H 4.250906 -1.969564 -1.758885
H 6.687170 -2.050539 -1.292141
H 7.639767 -0.760578 0.622737
H 6.127710 0.608368 2.061250
H 3.682747 0.690579 1.581070
H -0.010819 -0.597367 -1.510936