32
Extracted from mol_255.out
O 3.143370 -1.776461 0.642763
B 1.815212 -2.058356 0.411196
O 1.481081 -3.383182 0.383691
C 0.786351 -0.893293 0.189679
C 1.146200 0.466265 -0.038098
N 2.506588 0.815385 -0.043366
C 3.093630 2.037484 -0.285955
O 2.490208 3.061918 -0.553361
C 4.614820 2.021460 -0.199415
C 0.136425 1.425556 -0.254451
C -1.205096 1.054195 -0.230619
C -1.606788 -0.271077 0.006655
C -3.074890 -0.674907 0.045734
C -3.774919 -0.441042 -1.304923
C -3.833154 0.017074 1.192534
C -0.588416 -1.206175 0.208852
H 3.672162 -2.580028 0.743629
H 0.561164 -3.554808 0.151661
H 3.134418 0.047041 0.179930
H 4.930972 2.784005 0.528824
H 5.041187 1.048472 0.086021
H 5.023875 2.321886 -1.176834
H 0.427115 2.457078 -0.439077
H -1.958134 1.829822 -0.399788
H -3.100680 -1.761734 0.244382
H -3.801461 0.630720 -1.563401
H -3.256448 -0.967578 -2.121963
H -4.817140 -0.800079 -1.273469
H -3.358285 -0.184294 2.165842
H -3.858301 1.110883 1.054014
H -4.877061 -0.335115 1.241617
H -0.894004 -2.241117 0.407697