23
Extracted from mol_1147.out
O -4.434174 0.233091 -0.379619
B -3.195508 0.767565 -0.180112
O -2.979334 2.099134 0.077842
C -1.915431 -0.144171 -0.238582
C -1.930973 -1.525277 -0.486129
F -3.093878 -2.161210 -0.695454
C -0.763483 -2.284915 -0.525517
C 0.477391 -1.683371 -0.317006
C 0.540913 -0.299577 -0.066198
N 1.750318 0.393461 0.154212
C 3.040647 -0.090916 0.173741
O 3.331442 -1.260269 0.000581
C 4.093127 0.983586 0.420024
C -0.651433 0.438429 -0.031630
H -5.167825 0.857462 -0.327248
H -3.770510 2.649246 0.111008
H -0.838736 -3.356595 -0.722531
H 1.396096 -2.265138 -0.344697
H 1.642305 1.388391 0.314279
H 3.871086 1.569141 1.327386
H 4.140471 1.683268 -0.431348
H 5.068290 0.494461 0.532832
H -0.610803 1.514206 0.163788