30
Extracted from mol_594.out
O -3.193909 2.757211 0.711814
B -2.149804 1.905692 0.484016
O -0.881383 2.394980 0.490608
C -2.500330 0.384896 0.225013
C -3.844616 -0.018731 0.241621
C -4.195563 -1.347490 0.020267
F -5.491817 -1.704161 0.043232
C -3.227643 -2.314503 -0.224284
C -1.878616 -1.942590 -0.247334
C -1.518768 -0.605921 -0.024535
O -0.212591 -0.178761 -0.033328
C 0.846780 -1.107798 -0.265207
C 2.157733 -0.366777 -0.205289
C 2.677995 0.252798 -1.352018
C 3.873890 0.972895 -1.290304
C 4.562600 1.082659 -0.077840
C 4.051372 0.470962 1.071198
C 2.854672 -0.247999 1.006672
H -2.884637 3.660700 0.860213
H -0.240746 1.685120 0.316982
H -4.628576 0.717461 0.431308
H -3.529621 -3.350137 -0.395242
H -1.126734 -2.707445 -0.440385
H 0.814651 -1.903032 0.500835
H 0.712119 -1.580684 -1.254600
H 2.140963 0.168688 -2.301467
H 4.270306 1.448857 -2.191109
H 5.499515 1.643951 -0.028879
H 4.586657 0.553632 2.020761
H 2.456100 -0.724477 1.907283