37
Extracted from mol_588.out
O 3.745367 -3.796072 -0.993843
B 2.414755 -3.493168 -0.902449
O 1.514693 -4.494192 -1.119957
C 1.871922 -2.051689 -0.562451
C 2.763402 -0.993986 -0.291809
C 2.273636 0.283629 0.005441
N 3.108240 1.386358 0.285895
C 4.485855 1.452632 0.321427
O 5.220826 0.506292 0.106420
C 5.021732 2.840501 0.650929
C 0.882077 0.511836 0.033982
C -0.006222 -0.537369 -0.233129
O -1.359672 -0.409061 -0.226524
C -1.945859 0.853892 0.059732
C -3.446404 0.715810 0.002341
C -4.177798 0.391326 1.154193
C -5.564839 0.229998 1.095504
C -6.236543 0.388840 -0.120747
C -5.516065 0.708838 -1.276150
C -4.129479 0.869819 -1.213206
C 0.493423 -1.816510 -0.530317
H 4.332954 -3.046823 -0.837728
H 1.952972 -5.331244 -1.323452
H 3.842889 -1.132212 -0.302426
H 2.618322 2.250518 0.486413
H 6.114644 2.782469 0.720902
H 4.615644 3.212813 1.606085
H 4.750179 3.562933 -0.136972
H 0.513520 1.512621 0.266183
H -1.601986 1.604139 -0.677194
H -1.631135 1.198369 1.062817
H -3.654413 0.262719 2.106290
H -6.123128 -0.020539 2.001519
H -7.321825 0.264721 -0.168142
H -6.036411 0.833896 -2.229557
H -3.567981 1.116935 -2.119040
H -0.217289 -2.619036 -0.735123