29
Extracted from mol_18.out
O -2.683343 2.755763 -0.424845
B -2.946064 1.538969 0.136033
O -4.129736 1.454698 0.809914
C -1.914452 0.340204 0.016512
C -0.544537 0.646127 0.128750
C 0.469568 -0.325069 0.062188
C 1.905351 0.037673 0.204950
C 2.413060 1.233897 -0.337873
C 3.760980 1.573169 -0.201209
C 4.636089 0.723072 0.482050
C 4.148853 -0.469089 1.026774
C 2.800604 -0.806891 0.889857
C 0.068495 -1.656188 -0.145590
C -1.280960 -1.984330 -0.271391
C -2.289818 -1.012444 -0.184697
C -3.736994 -1.442325 -0.305106
H -1.882722 2.751952 -0.961498
H -4.254887 0.609636 1.253997
H -0.252545 1.684875 0.313555
H 1.748095 1.897154 -0.896619
H 4.131368 2.504289 -0.638878
H 5.691226 0.988143 0.589255
H 4.821420 -1.138221 1.570516
H 2.429827 -1.729548 1.343327
H 0.821768 -2.442586 -0.238770
H -1.558664 -3.027247 -0.452941
H -3.823563 -2.388427 -0.860841
H -4.189105 -1.625956 0.688265
H -4.359313 -0.691301 -0.813639