22
Extracted from mol_1503.out
O -0.573729 3.063490 -0.938370
B 0.050058 2.034293 -0.289365
O 1.224265 2.289905 0.332932
C -0.735249 0.639077 -0.305074
C -0.257256 -0.686930 -0.097701
C 1.147101 -1.123785 0.206790
O 1.573766 -2.228074 -0.028371
O 1.922497 -0.202010 0.842288
C 3.259166 -0.615802 1.163815
C -1.139844 -1.778772 -0.216809
C -2.492239 -1.606764 -0.492443
C -2.968402 -0.308815 -0.682695
Br -4.813637 -0.029072 -1.067623
C -2.106199 0.784688 -0.605919
H -0.063343 3.880871 -0.863040
H 1.589048 1.481536 0.734346
H 3.805121 -0.903364 0.253837
H 3.237711 -1.474341 1.850211
H 3.735822 0.248205 1.643512
H -0.737509 -2.784405 -0.085058
H -3.161801 -2.465634 -0.563513
H -2.495346 1.785702 -0.791750