20
Extracted from mol_897.out
O 3.303262 -0.509281 -0.725384
B 2.032210 -0.936617 -0.463025
O 1.772578 -2.273196 -0.446348
C 0.934825 0.165777 -0.192884
C 1.289343 1.524250 -0.225506
C 0.371082 2.552237 0.003226
C -0.952301 2.206453 0.274745
Cl -2.136608 3.461299 0.566959
C -1.364885 0.870496 0.320474
C -0.419841 -0.137492 0.087102
O -0.756548 -1.466129 0.117484
C -2.089691 -1.857962 0.383300
H 3.900967 -1.253554 -0.876213
H 0.834499 -2.426768 -0.248136
H 2.330542 1.777462 -0.440261
H 0.669967 3.600921 -0.027369
H -2.408022 0.647625 0.536355
H -2.786801 -1.467176 -0.378278
H -2.104384 -2.955711 0.351914
H -2.420194 -1.522633 1.381843