30
Extracted from mol_403.out
O -0.908397 -1.970853 1.879377
B -0.777837 -1.617626 0.570034
O -0.588523 -2.617034 -0.346576
C -0.835603 -0.085177 0.164711
C -2.110402 0.523560 0.117066
O -3.149704 -0.298702 0.439635
C -4.463731 0.207780 0.463362
C -2.271462 1.861907 -0.264493
C -1.139178 2.605615 -0.614472
C 0.126642 2.028427 -0.589860
C 0.291721 0.681973 -0.200515
C 1.667110 0.100178 -0.179170
C 2.557783 0.331449 -1.245735
C 3.851981 -0.193959 -1.230930
C 4.288045 -0.960032 -0.145168
C 3.417220 -1.195450 0.922849
C 2.121498 -0.671850 0.907396
H -0.876965 -2.931536 1.990864
H -0.472162 -2.286530 -1.245089
H -4.572298 1.035034 1.188282
H -4.787357 0.563972 -0.532162
H -5.113987 -0.622171 0.772256
H -3.256583 2.327804 -0.296204
H -1.254946 3.653447 -0.905376
H 1.003731 2.627131 -0.844758
H 2.222489 0.917257 -2.105608
H 4.522060 -0.007486 -2.074863
H 5.301304 -1.370519 -0.131675
H 3.750209 -1.785854 1.780983
H 1.457344 -0.850753 1.755841