20
Extracted from mol_1510.out
O -2.724360 0.724887 0.508561
B -1.851469 0.224963 -0.461696
O -2.311241 -0.309288 -1.668423
C -0.550753 -0.516154 0.138217
C -0.515143 -1.775988 0.741023
C 0.691316 -2.293590 1.217401
C 1.876679 -1.558712 1.098106
C 1.849370 -0.299206 0.497532
Br 3.543560 0.616235 0.393595
C 0.639730 0.231300 0.013234
C 0.328907 1.527772 -0.662165
O -0.865690 1.707125 -0.977678
N 1.252573 2.459679 -0.928214
H -3.527011 1.111395 0.140129
H -3.119938 0.106351 -1.988833
H -1.435862 -2.356976 0.839010
H 0.724291 -3.279678 1.689481
H 2.819571 -1.962382 1.470759
H 0.950139 3.311830 -1.386477
H 2.225332 2.330438 -0.673562