29
Extracted from mol_510.out
O 1.385505 2.445837 0.549341
B 0.054724 2.473075 0.836279
O -0.432563 3.584462 1.464534
C -1.003065 1.339753 0.489061
C -2.361765 1.679342 0.652978
C -3.384154 0.779054 0.365739
C -3.064633 -0.499174 -0.090451
C -1.726546 -0.873831 -0.258728
C -1.432458 -2.280970 -0.741382
F -0.693208 -2.977044 0.143642
F -0.760003 -2.289839 -1.909625
F -2.560371 -2.987075 -0.942561
C -0.682633 0.038377 0.025160
C 0.753170 -0.374115 -0.145651
C 1.403017 -0.229867 -1.384618
C 2.746890 -0.590649 -1.530723
C 3.458211 -1.106451 -0.443290
C 2.819809 -1.259318 0.791809
C 1.479055 -0.895202 0.939854
H 1.679704 1.637205 0.108265
H 0.266479 4.232108 1.626577
H -2.604654 2.680023 1.016853
H -4.430426 1.066266 0.497887
H -3.854246 -1.216906 -0.315612
H 0.847545 0.164716 -2.238901
H 3.236859 -0.470362 -2.500502
H 4.507789 -1.389414 -0.558270
H 3.368800 -1.663399 1.646382
H 0.983167 -1.016602 1.905955