21
Extracted from mol_979.out
O 2.036122 1.994232 -0.507087
B 1.607288 1.135010 0.459252
O 1.933516 1.214752 1.779629
C 0.677662 -0.067547 0.007555
C 1.188673 -1.316766 -0.392261
C 2.614203 -1.524898 -0.395957
N 3.764690 -1.685497 -0.399825
C 0.339570 -2.370862 -0.789860
C -1.035810 -2.166918 -0.785624
C -1.576796 -0.936034 -0.393367
C -0.721281 0.103209 -0.000213
O -1.149548 1.332099 0.397339
C -2.530553 1.615339 0.434912
H 2.620371 2.703877 -0.211821
H 2.520521 1.940483 2.026362
H 0.766030 -3.328015 -1.094674
H -1.706890 -2.973673 -1.091166
H -2.658722 -0.801169 -0.398790
H -2.994263 1.532028 -0.564853
H -3.067017 0.948800 1.134417
H -2.627765 2.651552 0.786035