20
Extracted from mol_1321.out
O 3.103709 -1.705851 0.553693
B 2.819881 -0.393977 0.327768
O 3.869461 0.470914 0.432873
C 1.359921 0.100366 -0.040467
C 1.143067 1.249359 -0.827948
C -0.143880 1.675294 -1.153567
C -1.235177 0.950906 -0.680703
F -2.465154 1.402280 -1.017725
C -1.088989 -0.198207 0.108067
C -2.199947 -1.065088 0.671047
O -1.931422 -2.061693 1.322994
N -3.480532 -0.684287 0.419810
C 0.225399 -0.595052 0.404229
H 2.358187 -2.296015 0.395268
H 3.610409 1.396840 0.372985
H 1.993896 1.820703 -1.213574
H -0.324602 2.558076 -1.770452
H -4.217921 -1.268707 0.795133
H -3.709354 0.135135 -0.125133
H 0.313051 -1.490995 1.025702