22
Extracted from mol_1672.out
O -2.370335 -2.578507 -0.890631
B -2.367049 -1.210050 -0.855300
O -3.436734 -0.555590 -1.382409
C -1.135698 -0.398928 -0.277381
C 0.145559 -0.849148 -0.628967
C 1.318220 -0.191747 -0.205624
S 2.850843 -0.883708 -0.758221
C 4.111588 0.202442 -0.029787
C 1.198336 0.946767 0.611480
C -0.064920 1.399024 0.980765
C -1.233009 0.750365 0.549668
C -2.538522 1.286386 1.020237
O -2.650215 2.261055 1.734371
H -1.612060 -2.979763 -0.449105
H -4.106048 -1.167688 -1.720424
H 0.250732 -1.728289 -1.273962
H 4.075436 0.188843 1.069697
H 4.022753 1.234817 -0.399542
H 5.076224 -0.210010 -0.358229
H 2.081258 1.481237 0.964128
H -0.177166 2.275585 1.623820
H -3.439194 0.726905 0.675415