19
Extracted from mol_98.out
O -2.648520 -0.104159 -0.917602
B -1.856523 0.695665 -0.150380
O -2.449281 1.765998 0.466780
C -0.309858 0.401106 -0.017780
C 0.545496 1.507729 0.148946
C 1.927105 1.347737 0.263888
Br 3.046948 2.881364 0.477974
C 2.491254 0.073504 0.224453
C 1.650256 -1.030844 0.062619
C 0.258992 -0.899021 -0.067382
C -0.585304 -2.139022 -0.250224
H -3.565584 0.204387 -0.921971
H -1.861406 2.250475 1.058275
H 0.134697 2.521079 0.170983
H 3.570898 -0.058485 0.318550
H 2.096097 -2.029480 0.035786
H -1.063434 -2.152296 -1.242087
H 0.023167 -3.049450 -0.144854
H -1.404999 -2.186287 0.484030