34
Extracted from mol_659.out
O 3.686591 0.970323 2.523572
B 3.433772 1.331590 1.231777
O 3.699002 2.627184 0.859345
C 2.526435 0.351222 0.358772
C 3.110556 -0.617628 -0.479561
C 4.603320 -0.645076 -0.480271
O 5.235719 0.257320 0.065072
N 5.235061 -1.677537 -1.107654
C 2.295904 -1.461107 -1.257230
C 0.912502 -1.362628 -1.196435
C 0.314557 -0.409571 -0.348856
O -1.039470 -0.390273 -0.347611
C -1.732135 0.535262 0.488972
C -3.214484 0.333438 0.304836
C -3.902956 1.003719 -0.717356
C -5.270817 0.794049 -0.910951
C -5.966882 -0.092557 -0.082716
C -5.289672 -0.767376 0.937898
C -3.921301 -0.555473 1.127950
C 1.127091 0.443074 0.418319
H 4.221007 1.641363 2.969848
H 3.582663 2.782156 -0.084433
H 6.244394 -1.717090 -1.026309
H 4.745394 -2.522338 -1.368129
H 2.736258 -2.192921 -1.940720
H 0.264716 -2.004853 -1.796562
H -1.445908 1.568162 0.219266
H -1.447107 0.370659 1.543690
H -3.361059 1.697333 -1.367166
H -5.796028 1.325241 -1.709294
H -7.037875 -0.255287 -0.231052
H -5.829287 -1.460239 1.589136
H -3.393753 -1.085946 1.926244
H 0.673792 1.185803 1.076739