21
Extracted from mol_1813.out
O 3.927578 0.375420 -0.733300
B 3.172297 -0.318725 0.160734
O 3.852450 -1.032225 1.098412
C 1.585078 -0.297813 0.115732
C 0.817282 -1.423552 0.469709
C -0.575083 -1.401705 0.424837
C -1.282126 -0.254297 0.038185
C -2.801382 -0.406659 0.052658
O -3.290453 -1.478907 0.372546
N -3.570044 0.657865 -0.289850
C -0.523841 0.891365 -0.316222
C -1.116159 2.133589 -0.728749
N -1.578026 3.142115 -1.075961
C 0.884789 0.850557 -0.277749
H 3.419043 0.784385 -1.442361
H 3.288864 -1.430843 1.770929
H 1.317219 -2.348726 0.774487
H -1.166911 -2.279476 0.689565
H -3.215887 1.565372 -0.563293
H -4.572978 0.513423 -0.267364
H 1.428291 1.758835 -0.553081