22
Extracted from mol_1307.out
O -4.160294 1.562945 0.456591
B -3.628682 0.360632 0.101435
O -4.514391 -0.602952 -0.272970
C -2.063179 0.101100 0.122891
C -1.143277 1.124524 -0.182379
C 0.229307 0.890021 -0.167831
C 0.752445 -0.374784 0.162661
C 2.226836 -0.628104 0.183155
O 2.759004 -1.678360 0.446286
O 2.922246 0.485569 -0.136946
C 4.342853 0.353719 -0.149983
C -0.169119 -1.392339 0.471952
F 0.245807 -2.613496 0.800421
C -1.544357 -1.162389 0.447656
H -3.507523 2.182645 0.801333
H -4.093791 -1.404385 -0.604345
H -1.505127 2.120682 -0.455065
H 0.930469 1.687282 -0.415954
H 4.738901 1.338052 -0.429956
H 4.718427 0.058417 0.841977
H 4.659337 -0.407598 -0.879580
H -2.195889 -2.001177 0.709251