17
Extracted from mol_748.out
O 3.037189 0.685998 0.260502
B 2.129640 -0.213674 -0.211811
O 2.582637 -1.323702 -0.862061
C 0.600587 0.100217 0.031332
C 0.200423 1.271220 0.709004
C -1.149788 1.554168 0.926174
C -2.144896 0.680749 0.475921
C -1.789005 -0.491228 -0.200322
O -2.741345 -1.346527 -0.642168
C -0.424810 -0.739806 -0.398590
F -0.134375 -1.905365 -1.068337
H 3.944224 0.413947 0.066427
H 1.867584 -1.901410 -1.159313
H 0.972898 1.956843 1.062792
H -1.438422 2.466915 1.453645
H -3.206001 0.884823 0.636268
H -2.306539 -2.093169 -1.079464