20
Extracted from mol_1367.out
O -1.759323 1.386283 1.628155
B -0.789870 1.693271 0.701823
O -0.712714 3.001051 0.319640
C 0.209275 0.593401 0.173370
C -0.124818 -0.744234 -0.188142
B -1.571693 -1.400253 -0.131878
O -1.748899 -2.533376 -0.881508
O -2.625582 -0.953638 0.597340
C 0.908436 -1.577084 -0.667261
C 2.232822 -1.150154 -0.773888
C 2.533959 0.157536 -0.409279
F 3.798142 0.596777 -0.501649
C 1.545974 1.025219 0.045190
H -2.291659 2.158447 1.870216
H -0.061506 3.164605 -0.373667
H -2.642466 -2.884016 -0.767323
H -2.432408 -0.169703 1.143215
H 0.656738 -2.596528 -0.967675
H 3.026536 -1.807956 -1.135293
H 1.849056 2.040349 0.318615