26
Extracted from mol_1097.out
O -4.140199 0.789770 -0.224400
B -3.551772 -0.407343 0.063107
O -4.368792 -1.464227 0.363491
C -1.981262 -0.493752 0.038828
C -1.290473 -1.713007 0.135362
C 0.105242 -1.763172 0.116867
C 0.829102 -0.577225 0.004201
O 2.211107 -0.539145 -0.077956
C 3.026558 -1.265788 0.750633
O 2.627530 -2.033675 1.581186
C 4.466966 -0.942088 0.450116
C 0.176692 0.670799 -0.098880
S 1.218650 2.105156 -0.242943
C 0.016670 3.467617 -0.279725
C -1.223927 0.687476 -0.084596
H -5.103678 0.740359 -0.164840
H -3.898695 -2.268822 0.610498
H -1.835421 -2.659697 0.217643
H 0.633041 -2.712525 0.197169
H 4.651228 0.127811 0.635019
H 5.120573 -1.553452 1.083810
H 4.680840 -1.128472 -0.613677
H -0.583478 3.510336 0.641526
H 0.620651 4.383456 -0.353484
H -0.645477 3.407654 -1.156282
H -1.761679 1.631954 -0.168033