26
Extracted from mol_355.out
O 2.413357 -1.959398 1.156861
B 2.775670 -0.827421 0.485181
O 4.101997 -0.575970 0.329314
C 1.582984 0.079092 -0.045486
C 1.745622 1.294513 -0.762500
C 3.058221 1.796365 -1.062428
N 4.134742 2.172392 -1.292916
C 0.630807 2.033215 -1.195100
C -0.656327 1.574482 -0.921996
C -0.862887 0.378776 -0.216904
C -2.272009 -0.119222 0.075890
C -2.554693 -1.467234 -0.611567
C -2.551728 -0.191435 1.587895
C 0.267471 -0.341362 0.205339
H 3.186731 -2.460328 1.449185
H 4.343048 0.230493 -0.148633
H 0.780092 2.965134 -1.744903
H -1.516610 2.157056 -1.264001
H -2.968036 0.622628 -0.353475
H -2.392937 -1.405585 -1.699385
H -3.598153 -1.778096 -0.439110
H -1.900791 -2.263612 -0.219777
H -2.388948 0.783180 2.074843
H -1.898151 -0.927639 2.084137
H -3.595168 -0.494747 1.773343
H 0.135697 -1.275277 0.756194