20
Extracted from mol_1424.out
O 3.703616 0.059005 -0.377147
B 2.570548 -0.698134 -0.467195
O 2.668872 -1.926771 -1.039447
C 1.245553 -0.038648 0.115844
C 1.378335 1.251400 0.673537
C 0.296912 1.940225 1.218499
C -0.969373 1.354900 1.209208
C -1.167352 0.075352 0.667245
S -2.806610 -0.639965 0.769456
C -3.353863 -0.569156 -0.975488
C -0.046038 -0.601199 0.141568
Cl -0.317465 -2.231725 -0.499937
H 4.465798 -0.404323 -0.749219
H 1.824824 -2.401457 -1.061435
H 2.370115 1.707770 0.669798
H 0.435454 2.936828 1.645308
H -1.833128 1.881489 1.621472
H -2.722382 -1.198751 -1.618139
H -3.362883 0.466576 -1.344881
H -4.380933 -0.963415 -0.982787