29
Extracted from mol_1010.out
O -1.149176 -2.750538 -1.997606
B -1.702914 -1.627721 -1.453112
O -3.032837 -1.391181 -1.634415
C -0.746884 -0.650450 -0.660747
C 0.638700 -0.868842 -0.702364
C 1.554520 -0.026969 -0.051901
N 2.923428 -0.342102 -0.157376
C 4.010791 0.327857 0.361904
O 3.930696 1.346121 1.023810
C 5.356555 -0.306182 0.037965
C 1.067617 1.081254 0.665135
C -0.306044 1.319579 0.723699
C -1.194344 0.462453 0.074237
O -2.577309 0.711999 0.076023
C -3.266525 1.002385 1.231434
O -2.752696 1.102432 2.308282
C -4.734216 1.161290 0.923438
H -1.805070 -3.271740 -2.479664
H -3.282682 -0.551763 -1.218471
H 1.004117 -1.731422 -1.267852
H 3.124492 -1.177427 -0.693747
H 5.955625 0.418706 -0.534962
H 5.292873 -1.246627 -0.529498
H 5.890815 -0.490315 0.982392
H 1.769249 1.742906 1.168002
H -0.678671 2.174633 1.286583
H -5.143565 0.208201 0.550728
H -5.267501 1.458765 1.834252
H -4.879044 1.914695 0.133829