26
Extracted from mol_348.out
O 2.089253 -2.229118 -0.488700
B 1.612611 -1.407328 0.489607
O 1.677658 -1.911160 1.755134
C 1.114125 0.075518 0.188172
C 2.126954 1.055001 0.230780
C 1.867874 2.407112 -0.007278
C 0.568635 2.806416 -0.296100
C -0.463400 1.848669 -0.345581
C -1.788734 2.323702 -0.648703
N -2.842574 2.745823 -0.896404
C -0.215514 0.471262 -0.106904
C -1.378888 -0.519921 -0.176484
C -1.662967 -1.194005 1.179005
C -1.206628 -1.556122 -1.303049
H 2.032295 -1.842027 -1.369703
H 1.339795 -1.303176 2.422572
H 3.154262 0.750469 0.457969
H 2.675361 3.142222 0.033039
H 0.333005 3.855632 -0.486215
H -2.276188 0.066062 -0.426491
H -2.567172 -1.819687 1.108591
H -0.835775 -1.846118 1.497446
H -1.835456 -0.444594 1.968388
H -1.050773 -1.063765 -2.276571
H -0.356912 -2.230393 -1.117959
H -2.110845 -2.180471 -1.384562