22
Extracted from mol_993.out
O -3.565736 -0.947585 0.918179
B -2.301270 -1.317482 0.636526
O -1.965236 -2.639623 0.738211
C -1.083861 -0.349052 0.229147
C -1.072114 0.981137 -0.274980
N -2.284229 1.786055 -0.508628
O -2.208902 2.721001 -1.285393
O -3.321425 1.518999 0.102160
C 0.119833 1.638779 -0.599492
C 1.352917 1.022489 -0.415942
C 1.384932 -0.290006 0.081104
O 2.509747 -0.997786 0.298522
C 3.768825 -0.420162 0.012805
C 0.174965 -0.945038 0.377990
H -3.682963 0.012924 0.777104
H -2.728333 -3.165874 1.012153
H 0.065062 2.651316 -0.997476
H 2.264466 1.567142 -0.661456
H 3.864920 -0.161113 -1.056540
H 3.949530 0.484339 0.620352
H 4.522212 -1.177440 0.266570
H 0.236662 -1.973019 0.736121