27
Extracted from mol_1203.out
O 0.671037 -0.572036 -2.536690
B 0.733167 -1.125965 -1.247223
O 0.126744 -2.367685 -0.975494
C 0.571155 -0.052063 -0.057222
C 1.798524 0.321012 0.500129
C 2.869418 -0.492725 -0.113567
O 2.513335 -1.337622 -0.968179
N 4.159910 -0.353490 0.225493
C 1.910927 1.293886 1.504945
C 0.735448 1.895761 1.954219
C -0.516019 1.520102 1.445661
C -0.605424 0.527883 0.449638
N -1.820237 0.046339 -0.067243
C -3.100817 0.499681 0.159895
O -3.369347 1.455436 0.866037
C -4.171479 -0.315871 -0.552688
H 0.811232 -1.220443 -3.236783
H 0.181207 -2.989327 -1.711325
H 4.854293 -0.942424 -0.219263
H 4.456008 0.328025 0.910683
H 2.873733 1.582871 1.937249
H 0.780182 2.665055 2.729657
H -1.429249 1.983656 1.813720
H -1.713488 -0.788081 -0.638852
H -5.138553 0.183816 -0.418061
H -4.229369 -1.331546 -0.126533
H -3.952340 -0.414247 -1.628204