20
Extracted from mol_1363.out
O 3.581408 0.296314 -1.506058
B 2.986433 -0.167747 -0.362129
O 3.768862 -0.762225 0.574105
C 1.424271 -0.071254 -0.152483
C 0.542162 -0.226041 -1.242211
C -0.843767 -0.166777 -1.092858
C -1.423747 0.056966 0.170738
B -2.991630 0.115863 0.330971
O -3.752740 0.166111 -0.797387
O -3.630983 0.113457 1.540344
C -0.556914 0.224034 1.264584
C 0.823621 0.156752 1.092642
F 1.596836 0.344942 2.173868
H 2.979300 0.769400 -2.092442
H 4.701004 -0.761374 0.315427
H 0.958493 -0.417644 -2.237220
H -1.493632 -0.297753 -1.961048
H -4.698161 0.181828 -0.595903
H -3.045629 0.022330 2.300921
H -0.925189 0.422818 2.276139