20
Extracted from mol_905.out
O 3.580165 -0.872184 0.531139
B 2.884937 0.021803 -0.241786
O 3.473651 0.853814 -1.157995
C 1.332304 0.095978 -0.068273
C 0.654716 -0.722659 0.849749
C -0.731997 -0.659313 1.006657
C -1.495367 0.236498 0.239713
O -2.836024 0.366696 0.321849
C -3.558602 -0.437750 1.228230
C -0.820712 1.065414 -0.687090
Cl -1.747820 2.189448 -1.653045
C 0.559803 0.992892 -0.833761
H 4.534858 -0.890172 0.396966
H 4.431576 0.781599 -1.240443
H 1.224970 -1.428790 1.458718
H -1.220754 -1.311919 1.731071
H -3.442553 -1.513803 1.005357
H -3.251942 -0.255311 2.274144
H -4.615351 -0.161095 1.113154
H 1.044138 1.648849 -1.559756