20
Extracted from mol_172.out
O 3.334936 0.787596 0.464653
B 2.591651 -0.237426 -0.051774
O 3.246351 -1.311358 -0.570793
C 1.013230 -0.253181 -0.076027
C 0.336892 -1.430613 -0.434600
C -1.066938 -1.465736 -0.461304
C -1.754150 -2.674657 -0.829258
N -2.312948 -3.648868 -1.124944
C -1.807978 -0.314706 -0.132540
C -1.161465 0.873793 0.225372
C -1.952546 2.103621 0.601744
C 0.242617 0.878271 0.243964
H 2.820903 1.495432 0.869107
H 4.206672 -1.226249 -0.499510
H 0.907034 -2.323616 -0.697595
H -2.899647 -0.356514 -0.163227
H -2.120675 2.147107 1.692297
H -2.941287 2.112393 0.118721
H -1.424461 3.026585 0.316106
H 0.741811 1.818128 0.509607