21
Extracted from mol_823.out
O 2.778488 -2.249989 -0.354277
B 2.777416 -0.966891 0.127497
O 3.885018 -0.353368 0.655621
C 1.441730 -0.156131 0.072138
C 1.364122 1.162958 0.555235
C 0.171257 1.882261 0.503104
C -0.983658 1.307847 -0.048509
O -2.151904 1.991990 -0.130123
C -0.944064 -0.022364 -0.527526
S -2.350768 -0.782037 -1.325295
C -3.603242 -0.782014 0.007374
C 0.265990 -0.722916 -0.456513
H 3.620442 -2.717455 -0.307176
H 4.689914 -0.884099 0.672197
H 2.254700 1.632314 0.981291
H 0.127345 2.909922 0.881479
H -2.022828 2.885184 0.216885
H -3.848813 0.243638 0.314036
H -4.497625 -1.260458 -0.418950
H -3.259747 -1.368409 0.872662
H 0.286227 -1.749980 -0.829031