20
Extracted from mol_918.out
O -1.978611 -2.050528 0.590413
B -0.713121 -2.142188 0.099063
O -0.197744 -3.371315 -0.196102
C 0.212789 -0.885120 -0.154696
C 1.506286 -1.083057 -0.666146
C 2.364626 -0.007424 -0.908499
I 4.316257 -0.355268 -1.685449
C 1.947194 1.297229 -0.643702
C 0.664319 1.525497 -0.134052
C -0.194241 0.444759 0.108153
O -1.461486 0.609498 0.606451
C -1.945117 1.904640 0.905111
H -2.206547 -1.120378 0.752361
H -0.832513 -4.075818 -0.009946
H 1.827854 -2.105720 -0.871437
H 2.609676 2.145001 -0.829550
H 0.354876 2.551339 0.066363
H -1.328573 2.400553 1.675013
H -2.964918 1.775788 1.292078
H -1.981005 2.542514 0.004574