29
Extracted from mol_1190.out
O -3.292002 1.058642 -0.299767
B -2.567688 0.071463 -1.003697
O -3.202081 -0.733778 -1.963881
C -1.579832 -0.758682 -0.040956
C -2.068062 -1.891498 0.624430
C -1.289132 -2.611234 1.535268
C 0.012990 -2.198651 1.795345
C 0.564451 -1.079808 1.144344
C 1.973909 -0.769999 1.521551
O 2.634583 -1.412618 2.301516
O 2.497657 0.337940 0.911499
C 3.846376 0.667400 1.260491
C -0.251354 -0.372259 0.215907
N 0.281396 0.727078 -0.495621
C -0.301948 1.340991 -1.537107
O -1.444418 1.058914 -1.947993
C 0.479218 2.427167 -2.231549
H -4.008036 1.441591 -0.820276
H -3.884815 -0.267228 -2.459249
H -3.092283 -2.210915 0.413189
H -1.697136 -3.488191 2.044204
H 0.645608 -2.733026 2.505884
H 4.525425 -0.161677 1.012938
H 4.103737 1.561218 0.677807
H 3.927944 0.876565 2.337354
H 1.228055 0.995776 -0.235029
H 0.486771 2.220816 -3.312339
H -0.041478 3.387111 -2.086851
H 1.512144 2.516891 -1.867415