20
Extracted from mol_1646.out
O 3.081344 -0.046096 0.811769
B 2.036797 0.776838 0.524467
O 2.225366 2.123885 0.653059
C 0.632745 0.167868 0.110238
C -0.515931 0.784344 0.631118
C -1.806158 0.301366 0.362936
C -2.991363 0.986345 0.945226
O -2.935655 1.967439 1.650088
C -1.968154 -0.824666 -0.458130
C -0.848268 -1.448735 -1.000044
C 0.442275 -0.967226 -0.722802
C 1.589917 -1.678533 -1.372246
O 1.450693 -2.647644 -2.085005
H 3.869772 0.446687 1.081436
H 1.467496 2.660505 0.391357
H -0.441679 1.657942 1.286287
H -3.976289 0.521104 0.678864
H -2.972848 -1.203468 -0.671114
H -0.939357 -2.319959 -1.652688
H 2.599298 -1.257996 -1.164818