25
Extracted from mol_260.out
O 2.758090 -1.482702 1.575078
B 1.887316 -1.295836 0.544252
O 1.713041 -2.340335 -0.327930
C 1.196997 0.119176 0.399498
C 2.020621 1.234933 0.654151
C 1.533124 2.525983 0.496769
F 2.341730 3.571833 0.735249
C 0.219101 2.756885 0.098862
C -0.609133 1.657778 -0.131293
C -0.150542 0.336221 0.012305
C -1.123217 -0.820029 -0.230656
C -2.398070 -0.709506 0.624183
C -1.472150 -0.969553 -1.723988
H 3.170489 -2.357212 1.542675
H 1.145835 -2.133077 -1.079265
H 3.054454 1.099909 0.979778
H -0.139766 3.782073 -0.016475
H -1.645342 1.843026 -0.426600
H -0.618995 -1.746700 0.084432
H -3.027234 -1.605781 0.495783
H -3.009532 0.163166 0.341610
H -2.153668 -0.615597 1.693934
H -1.995941 -0.076617 -2.103708
H -0.569485 -1.097983 -2.345998
H -2.127729 -1.840053 -1.892648