30
Extracted from mol_622.out
O -0.910344 0.755885 2.200589
B -2.025028 1.059258 1.487107
O -2.777210 2.104974 1.937965
C -2.442046 0.223814 0.196919
C -3.776963 0.205000 -0.244858
C -4.183045 -0.565875 -1.335089
C -3.250666 -1.356472 -2.010777
C -1.916615 -1.362700 -1.591648
I -0.529571 -2.627208 -2.593007
C -1.507292 -0.577596 -0.499976
O -0.201293 -0.620051 -0.066629
C 0.685669 0.370968 -0.645442
C 2.064317 0.209621 -0.062098
C 3.042872 -0.532148 -0.740534
C 4.318543 -0.694935 -0.193135
C 4.627455 -0.120274 1.043677
C 3.657041 0.617281 1.730122
C 2.382913 0.781853 1.180503
H -0.436182 0.015372 1.786935
H -3.509068 2.335570 1.355680
H -4.530368 0.791672 0.291258
H -5.227820 -0.567291 -1.655921
H -3.560070 -1.974426 -2.855967
H 0.704013 0.232357 -1.738692
H 0.282020 1.375050 -0.429002
H 2.801179 -0.984996 -1.706211
H 5.073417 -1.272443 -0.733523
H 5.625339 -0.246113 1.472603
H 3.893806 1.068913 2.697172
H 1.624997 1.354940 1.721981