25
Extracted from mol_1101.out
O -1.974437 2.195905 0.114214
B -1.003508 1.383104 -0.386935
O -0.279372 1.822281 -1.453015
C -0.663051 -0.053676 0.211332
C -1.604815 -1.091027 0.398992
C -3.059313 -0.846862 0.071925
F -3.797051 -1.962531 0.107730
F -3.624101 0.016997 0.965354
F -3.224067 -0.293082 -1.142605
C -1.228729 -2.342666 0.896740
C 0.105007 -2.583240 1.235466
C 1.057696 -1.577783 1.084246
C 0.661633 -0.336213 0.578615
O 1.569258 0.709190 0.488011
C 2.675968 0.601539 -0.318485
O 2.994621 -0.413148 -0.871571
C 3.376870 1.930262 -0.400546
H -2.509763 1.796112 0.811337
H -0.593086 2.686065 -1.756572
H -1.976794 -3.127263 1.015654
H 0.401648 -3.560727 1.623362
H 2.101381 -1.745917 1.351333
H 4.345530 1.808606 -0.900170
H 3.505844 2.363151 0.602501
H 2.742631 2.620924 -0.979139