17
Extracted from mol_1545.out
O -3.240140 -0.610455 -0.545417
B -2.339242 0.066541 0.218380
O -2.857106 0.915679 1.146806
C -0.774708 -0.126601 0.034610
C -0.223189 -1.367571 -0.339877
C 1.151952 -1.547584 -0.497388
C 2.021504 -0.473335 -0.293754
Br 3.886247 -0.732248 -0.518898
C 1.508882 0.788883 0.075750
C 2.361331 1.924022 0.291401
N 3.009172 2.870627 0.470543
C 0.117236 0.936012 0.238915
H -2.842397 -1.116096 -1.262763
H -2.200712 1.298062 1.739735
H -0.879386 -2.229268 -0.499809
H 1.556777 -2.521629 -0.777811
H -0.256218 1.924963 0.519578