26
Extracted from mol_1725.out
O 1.206782 2.143896 1.537206
B 0.522989 1.874971 0.383879
O -0.115646 2.880313 -0.258477
C 0.476180 0.322425 -0.021142
C 1.707943 -0.375349 -0.054599
C 2.993145 0.418769 -0.020851
O 3.097097 1.481847 -0.607861
N 4.040277 -0.164669 0.640906
C 1.756115 -1.763256 -0.242334
C 0.579046 -2.498338 -0.396790
C -0.644281 -1.836198 -0.389337
C -0.700916 -0.438081 -0.227051
C -2.040528 0.217890 -0.353171
O -2.237353 1.344047 -0.769877
O -3.051861 -0.591598 -0.005274
C -4.373544 -0.072053 -0.170165
H 1.200963 3.093773 1.720736
H -0.812849 2.534494 -0.844284
H 4.884699 0.390958 0.727503
H 3.873601 -0.874945 1.342613
H 2.724399 -2.267627 -0.296064
H 0.618666 -3.580464 -0.544954
H -1.572213 -2.392329 -0.527676
H -4.561989 0.190064 -1.222425
H -5.054919 -0.867959 0.154911
H -4.515801 0.829417 0.444579