19
Extracted from mol_1693.out
O -2.585175 -1.401904 -0.014421
B -1.903151 -0.237262 0.146279
O -2.621500 0.883507 0.431673
C -0.315142 -0.099274 0.052896
C 0.527816 -1.119858 0.571947
C -0.028189 -2.341732 1.093718
N -0.469249 -3.345554 1.479379
C 1.929535 -0.993082 0.584646
C 2.529855 0.151526 0.062289
C 1.731061 1.153424 -0.481769
C 0.330206 1.037390 -0.492449
C -0.421676 2.155189 -1.156495
O 0.125856 3.140272 -1.598285
H -2.061245 -2.207714 -0.109214
H -3.567327 0.691653 0.511178
H 2.536260 -1.798937 1.003519
H 3.617829 0.252097 0.072194
H 2.166262 2.054600 -0.920088
H -1.522024 2.025659 -1.236995