16
Extracted from mol_1265.out
O 2.698514 -0.720583 0.952117
B 2.028199 0.013718 0.017818
O 2.758003 0.687803 -0.906281
C 0.436748 0.073281 -0.033117
C -0.334153 1.126494 -0.577308
Cl 0.420465 2.569778 -1.214993
C -1.733971 1.095270 -0.611824
C -2.417205 -0.005921 -0.095158
C -1.709124 -1.068281 0.467707
C -0.321696 -0.989363 0.486473
F 0.336823 -2.032750 1.056334
H 2.120176 -1.256094 1.509228
H 3.705448 0.543804 -0.773305
H -2.274900 1.939041 -1.042179
H -3.509309 -0.031925 -0.125768
H -2.204019 -1.944273 0.890257