20
Extracted from mol_1416.out
O 2.539891 1.996994 0.621223
B 2.640000 0.736312 0.113328
O 3.879647 0.238771 -0.141333
C 1.267661 -0.030059 -0.125743
C 0.084986 0.634685 0.254422
C -1.189628 0.079302 0.089517
C -2.374983 0.894272 0.544585
O -2.255871 1.818368 1.329322
N -3.593316 0.521047 0.036393
C -1.299743 -1.210354 -0.451832
C -0.156822 -1.910877 -0.834296
C 1.097531 -1.315939 -0.673761
Cl 2.479990 -2.290030 -1.200257
H 3.408662 2.400458 0.749235
H 3.865958 -0.659054 -0.503258
H 0.156077 1.628520 0.699799
H -3.666877 -0.036181 -0.804504
H -4.378979 1.117177 0.272473
H -2.273855 -1.695543 -0.552885
H -0.230331 -2.917871 -1.248395