20
Extracted from mol_1704.out
O -3.031881 -1.222488 -0.865292
B -2.370693 -0.155175 -0.331576
O -3.074061 0.952388 -0.007504
C -0.803987 -0.389839 -0.099424
C -0.403613 -1.738783 0.010571
C 0.925063 -2.112174 0.222806
C 1.912400 -1.135662 0.317054
C 1.586220 0.221501 0.184182
C 2.706917 1.211007 0.335260
O 3.858964 0.864147 0.449368
C 0.232708 0.559040 -0.020100
N -0.073300 1.998706 -0.200769
O -0.950563 2.498667 0.498505
O 0.583754 2.613484 -1.017486
H -3.978835 -1.044406 -0.948532
H -2.526227 1.653896 0.385707
H -1.173475 -2.507371 -0.080198
H 1.187689 -3.169199 0.312920
H 2.960903 -1.385963 0.493718
H 2.432018 2.288224 0.360791