30
Extracted from mol_501.out
O 3.481237 1.228853 0.386788
B 2.133207 1.431209 0.218981
O 1.612142 2.559049 -0.352204
C 1.163716 0.338998 0.798569
C 1.539206 -0.283056 2.002779
C 0.705091 -1.167328 2.690084
C -0.560223 -1.468824 2.166262
S -1.736918 -2.567016 2.917188
C -0.897545 -3.133893 4.424527
C -0.944667 -0.882892 0.946739
C -0.107478 0.004147 0.256421
C -0.571340 0.517749 -1.065984
C -1.842328 1.100933 -1.211786
C -2.288532 1.548802 -2.458241
C -1.474824 1.414168 -3.587119
C -0.211045 0.828394 -3.458366
C 0.235258 0.386984 -2.211008
H 4.046452 1.957294 0.102127
H 2.253273 3.192091 -0.697067
H 2.519517 -0.051723 2.428576
H 1.049699 -1.609513 3.625668
H -0.679870 -2.300611 5.109632
H 0.027846 -3.683579 4.195244
H -1.604260 -3.819382 4.913940
H -1.910818 -1.149234 0.509311
H -2.479494 1.221193 -0.331660
H -3.276817 2.008684 -2.546522
H -1.824938 1.760344 -4.563448
H 0.428520 0.706787 -4.337302
H 1.215932 -0.088625 -2.122283