20
Extracted from mol_1886.out
O -3.216457 -1.327439 -0.597118
B -2.645249 -0.111522 -0.368899
O -3.445385 0.983900 -0.340273
C -1.065647 -0.124754 -0.158969
C -0.397156 -1.358393 -0.223276
C 0.985255 -1.464258 -0.052109
C 1.747817 -0.318425 0.191759
C 3.244740 -0.397105 0.391814
F 3.712923 -1.640694 0.209042
F 3.590859 -0.011825 1.633179
F 3.892917 0.412771 -0.463949
C 1.124076 0.929256 0.262591
C -0.266012 1.022695 0.089777
C -0.871239 2.325349 0.169649
N -1.393442 3.362435 0.226281
H -4.173286 -1.257275 -0.717786
H -3.023433 1.839418 -0.177629
H -0.986089 -2.257585 -0.414069
H 1.474800 -2.437941 -0.109320
H 1.710008 1.831392 0.449304