29
Extracted from mol_334.out
O 0.380697 3.359972 -1.643091
B 1.241442 2.499206 -1.015007
O 2.545894 2.880214 -0.894718
C 0.809720 1.100309 -0.435810
C 1.799571 0.192672 -0.009203
C 1.447790 -1.061588 0.503791
S 2.606140 -2.289040 1.065936
C 4.222552 -1.498561 0.818999
C 0.084582 -1.406388 0.595155
C -0.921836 -0.526200 0.186629
C -2.389295 -0.923624 0.306617
C -3.084027 -0.983126 -1.065262
C -3.153785 -0.010361 1.281194
C -0.538075 0.724474 -0.328422
H -0.512570 3.012586 -1.747240
H 2.706059 3.744867 -1.296088
H 2.844030 0.494454 -0.089955
H 4.964284 -2.233516 1.163318
H 4.324095 -0.581773 1.418836
H 4.409951 -1.274204 -0.241769
H -0.192664 -2.385892 0.998159
H -2.408636 -1.943518 0.728979
H -2.557537 -1.664534 -1.752132
H -3.119710 0.010780 -1.542193
H -4.123178 -1.337503 -0.962392
H -4.194887 -0.352835 1.402746
H -2.679715 0.000421 2.275358
H -3.187142 1.029857 0.916254
H -1.323752 1.422852 -0.638693