16
Extracted from mol_1565.out
O -2.762977 0.123082 1.227978
B -2.082150 0.018785 0.057007
O -2.828208 -0.072823 -1.074613
C -0.480372 0.004309 0.012992
C 0.279737 1.186446 -0.096315
I -0.713115 3.081224 -0.209812
C 1.677082 1.192971 -0.136079
C 2.363255 -0.021211 -0.064463
C 1.660294 -1.222897 0.044900
C 0.263205 -1.191361 0.081251
I -0.755795 -3.068116 0.249003
H -2.194323 0.186869 2.003276
H -2.304257 -0.146515 -1.879953
H 2.225654 2.132330 -0.221932
H 3.456186 -0.031098 -0.094284
H 2.195786 -2.171994 0.101041