30
Extracted from mol_503.out
O 0.677312 2.615866 -0.152341
B 0.945457 1.380157 -0.670767
O 1.178894 1.289089 -2.014247
C 0.951811 0.055865 0.207902
C 2.195013 -0.486335 0.600934
S 3.726762 0.333278 0.115537
C 4.027279 -0.415874 -1.528723
C 2.269721 -1.610170 1.434699
C 1.095074 -2.216425 1.883961
C -0.142896 -1.697469 1.505237
C -0.235714 -0.566768 0.671363
C -1.587876 -0.048480 0.305359
C -1.914475 0.277659 -1.024975
C -3.190304 0.742452 -1.356030
C -4.167511 0.891042 -0.367491
C -3.858773 0.569682 0.958108
C -2.584386 0.103468 1.289337
H 0.506717 2.605544 0.796782
H 1.167788 2.161823 -2.433198
H 3.214200 -0.157699 -2.221045
H 4.136522 -1.507282 -1.447283
H 4.972791 0.014121 -1.892054
H 3.248605 -1.995872 1.729095
H 1.144738 -3.098020 2.528950
H -1.059926 -2.185751 1.844627
H -1.165971 0.152266 -1.810330
H -3.423813 0.982578 -2.397010
H -5.164930 1.254915 -0.628354
H -4.613153 0.687233 1.741002
H -2.348958 -0.130895 2.330957