27
Extracted from mol_1250.out
O -1.579565 -2.480277 1.139548
B -1.830188 -1.844663 -0.053368
O -2.625559 -2.475146 -0.962337
C -1.463056 -0.327847 -0.308635
C -2.444718 0.505845 -0.875596
C -2.255493 1.880938 -1.020734
C -1.062406 2.455944 -0.581516
C -0.037258 1.675369 -0.017909
B 1.264286 2.391940 0.493654
O 1.864571 3.338363 -0.272466
O 1.847413 2.095849 1.713638
C -0.247398 0.275130 0.080847
N 0.836908 -0.530774 0.545369
C 1.241950 -1.727908 -0.030785
O 0.543964 -2.379081 -0.782401
C 2.649165 -2.157463 0.349418
H -1.018250 -1.961902 1.727179
H -2.829688 -3.377789 -0.683410
H -3.382982 0.049801 -1.202794
H -3.036252 2.502600 -1.466788
H -0.909393 3.534177 -0.681977
H 2.617084 3.748988 0.176687
H 1.253561 1.627511 2.313613
H 1.584536 -0.012194 0.996127
H 2.934710 -1.835105 1.362736
H 3.367259 -1.721748 -0.365848
H 2.716798 -3.250556 0.274579