29
Extracted from mol_231.out
O -0.739217 2.729003 0.091428
B 0.396380 2.020794 -0.204091
O 1.458901 2.739888 -0.664015
C 0.442575 0.443869 0.015750
C 1.709027 -0.197706 0.130510
O 2.821618 0.599424 -0.029921
C 4.118155 0.060199 0.123209
C 1.839568 -1.565105 0.392970
C 0.685390 -2.337401 0.528939
C -0.568830 -1.754708 0.387489
C -0.713016 -0.379161 0.125679
C -2.134057 0.174059 -0.017265
C -3.059971 -0.734517 -0.844642
C -2.745442 0.472782 1.364632
H -0.592344 3.671841 -0.068099
H 2.246341 2.173528 -0.716787
H 4.267277 -0.358096 1.133907
H 4.327769 -0.724396 -0.625263
H 4.820629 0.891897 -0.025289
H 2.818541 -2.033501 0.487698
H 0.773937 -3.407474 0.737018
H -1.456503 -2.382434 0.481541
H -2.066338 1.130845 -0.547084
H -2.611060 -0.995427 -1.816753
H -4.012775 -0.215935 -1.041795
H -3.309773 -1.674914 -0.326182
H -3.756915 0.899958 1.257439
H -2.130345 1.197748 1.917521
H -2.829523 -0.445062 1.971561