20
Extracted from mol_1601.out
O 1.335538 -2.519282 -1.150867
B 1.481529 -1.762852 -0.022432
O 2.023525 -2.336353 1.080466
C 0.992727 -0.250400 0.062371
C -0.393897 0.064334 0.012805
S -1.509788 -1.314192 -0.217167
C -3.161993 -0.567047 -0.130495
C -0.836990 1.389570 0.129571
C 0.089135 2.423868 0.282387
C 1.457057 2.156039 0.309064
C 1.881302 0.826659 0.197891
I 3.998456 0.495471 0.190249
H 0.884911 -2.062225 -1.871505
H 2.276841 -3.256553 0.921210
H -3.339284 -0.085224 0.842625
H -3.863912 -1.405600 -0.244380
H -3.333185 0.151162 -0.946352
H -1.899508 1.630816 0.101101
H -0.262211 3.455421 0.374124
H 2.179748 2.966388 0.414184