21
Extracted from mol_808.out
O -2.471184 1.625244 -1.703364
B -1.977890 0.429430 -1.241968
O -2.590270 -0.707941 -1.618995
C -0.734689 0.561449 -0.233475
C -0.655729 1.821135 0.391271
C 0.338076 2.127705 1.319831
C 1.307565 1.179219 1.626924
C 1.279483 -0.072812 1.003757
O 2.256609 -0.988871 1.297314
C 0.258557 -0.413704 0.080937
C 0.221109 -1.799634 -0.527169
O -0.833323 -2.377870 -0.803124
N 1.405340 -2.400745 -0.795589
H -3.234077 1.467953 -2.275921
H -2.103505 -1.495233 -1.269235
H -1.401287 2.573710 0.132270
H 0.363731 3.108842 1.801589
H 2.100862 1.401316 2.348980
H 2.852909 -0.615330 1.959893
H 2.262340 -2.062954 -0.374906
H 1.355372 -3.360910 -1.119018