27
Extracted from mol_397.out
O 2.827822 -1.765486 1.800097
B 3.222352 -0.870347 0.847760
O 4.556236 -0.622468 0.559172
C 2.150406 -0.084659 0.037016
C 2.494019 0.864386 -0.960693
O 3.767394 1.156217 -1.292910
C 1.479487 1.549259 -1.653282
C 0.142867 1.303736 -1.367554
C -0.243775 0.367178 -0.383436
C -1.676893 0.108799 -0.081646
C -2.129642 -1.182591 0.254493
C -3.474748 -1.425018 0.541643
C -4.405987 -0.382663 0.496024
C -3.975121 0.904996 0.161921
C -2.628853 1.146973 -0.120954
C 0.781955 -0.304604 0.294978
H 3.530552 -2.223253 2.275711
H 5.218376 -1.111569 1.062115
H 4.368553 0.619363 -0.745075
H 1.771791 2.266587 -2.423360
H -0.624713 1.833667 -1.937789
H -1.419694 -2.013281 0.267783
H -3.799523 -2.438723 0.792997
H -5.459439 -0.572583 0.718538
H -4.691027 1.731251 0.130471
H -2.304975 2.164714 -0.353205
H 0.522582 -1.019878 1.079182