21
Extracted from mol_1889.out
O -2.883819 -1.588919 0.704165
B -2.377859 -0.483822 0.093545
O -3.239876 0.405185 -0.463939
C -0.786496 -0.394117 0.032865
C -0.099482 -1.613205 -0.125068
C 1.291138 -1.676044 -0.222772
C 2.013443 -0.488575 -0.146117
N 3.491525 -0.530230 -0.240931
O 4.089839 0.529258 -0.156780
O 4.011407 -1.621998 -0.397816
C 1.387050 0.743292 0.027567
C -0.006529 0.785307 0.111167
C -0.661420 2.134504 0.314179
F 0.223120 3.114124 0.515409
F -1.511332 2.129760 1.352484
F -1.393943 2.495867 -0.781931
H -3.851048 -1.601864 0.679821
H -2.832734 1.176067 -0.879705
H -0.677849 -2.538517 -0.165727
H 1.820890 -2.620264 -0.350140
H 1.993971 1.644195 0.099726