21
Extracted from mol_181.out
O -2.937061 1.970039 0.188909
B -2.776679 0.640157 -0.049705
O -3.894455 -0.131332 -0.202185
C -1.304444 0.071767 -0.126451
C -1.017023 -1.217340 -0.611597
C 0.292407 -1.681465 -0.665927
C 1.335302 -0.865453 -0.214202
N 2.694264 -1.448268 -0.290793
O 2.856224 -2.408497 -1.027596
O 3.574463 -0.947439 0.393204
C 1.113230 0.437445 0.281241
C 2.187105 1.376976 0.770031
C -0.225865 0.866369 0.295415
H -3.869103 2.223236 0.235376
H -3.722706 -1.073449 -0.312739
H -1.815869 -1.874394 -0.971166
H 0.536887 -2.669363 -1.055388
H 1.759765 2.376868 0.933700
H 2.627758 1.020858 1.713514
H 3.023114 1.457088 0.060201
H -0.437314 1.876196 0.656157