24
Extracted from mol_1124.out
O -0.566180 3.241728 1.485981
B -1.429532 2.195681 1.584552
O -2.522597 2.323387 2.392301
C -1.102516 0.893836 0.750043
C -2.037862 -0.141439 0.593587
C -1.704149 -1.266015 -0.158311
N -2.702079 -2.346513 -0.323329
O -2.382655 -3.312169 -0.996928
O -3.782663 -2.203596 0.226832
C -0.457493 -1.410932 -0.764158
C 0.471225 -0.381215 -0.608616
O 1.670993 -0.533287 -1.279775
C 2.874814 -0.281843 -0.664887
O 2.976058 0.070159 0.476298
C 4.000841 -0.525119 -1.634115
C 0.156125 0.762358 0.133526
H -0.827158 3.988141 2.042327
H -3.073481 1.535568 2.465477
H -3.037493 -0.101876 1.029830
H -0.222721 -2.301284 -1.345872
H 3.873728 0.112360 -2.522874
H 4.958202 -0.309313 -1.145122
H 3.978493 -1.570664 -1.979018
H 0.888103 1.562047 0.242249