24
Extracted from mol_1781.out
O -0.356435 2.740000 0.284971
B -0.477719 1.665294 -0.531550
O -0.906980 1.836399 -1.814682
C -0.140398 0.160927 -0.100305
C -1.077272 -0.867652 -0.359269
C -2.500418 -0.605551 -0.810603
O -3.054759 -1.308938 -1.636286
N -3.138485 0.416805 -0.166830
C -0.740663 -2.218478 -0.188339
C 0.513691 -2.577577 0.298417
C 1.435833 -1.580601 0.616686
C 1.121867 -0.224369 0.423874
C 2.132525 0.805754 0.858677
O 1.820187 1.835987 1.454735
N 3.436358 0.511096 0.610188
H 0.261392 2.538690 1.022780
H -1.065916 2.771568 -2.005882
H -2.707097 0.956653 0.571686
H -4.078422 0.653463 -0.462626
H -1.487644 -2.975570 -0.437056
H 0.768318 -3.629795 0.449468
H 2.402202 -1.857445 1.045787
H 3.704748 -0.237204 -0.014794
H 4.135085 1.190542 0.890952