23
Extracted from mol_145.out
O 4.068422 0.548642 0.403094
B 2.824370 1.081824 0.195721
O 2.721854 2.438432 0.094237
C 1.513036 0.223335 0.073454
C 1.521545 -1.175601 -0.052745
C 0.334990 -1.903662 -0.144820
C -0.922319 -1.279710 -0.111236
C -2.168887 -2.125372 -0.189408
C -0.950116 0.134831 -0.005868
C -2.265029 0.874265 0.050722
O -3.275931 0.395446 0.540252
N -2.251521 2.141799 -0.468239
C 0.254073 0.848586 0.086877
H 4.073946 -0.407655 0.524558
H 3.577517 2.874029 0.206339
H 2.469590 -1.725134 -0.089450
H 0.378752 -2.992100 -0.244643
H -2.868656 -1.758197 -0.955615
H -1.912272 -3.171125 -0.416006
H -2.725565 -2.087303 0.758737
H -3.128814 2.649182 -0.470171
H -1.492615 2.480861 -1.043575
H 0.223629 1.934626 0.202108