29
Extracted from mol_322.out
O 4.060502 0.795795 -1.172560
B 3.097829 0.711779 -0.202634
O 3.341659 1.298137 0.995865
C 1.796129 -0.125539 -0.570330
C 1.960701 -1.152847 -1.515879
C 0.904702 -1.998830 -1.850993
C -0.333464 -1.830103 -1.235115
C -0.569574 -0.805638 -0.300024
C -1.974498 -0.753474 0.318859
C -2.920132 0.231990 -0.396502
C -2.014323 -0.567547 1.845324
C 0.510696 0.056593 0.006912
C 0.360949 1.214583 0.970389
O 0.868968 1.217431 2.089287
N -0.321065 2.288752 0.498465
H 4.835743 1.271629 -0.844226
H 2.615205 1.191885 1.641702
H 2.939335 -1.284870 -1.982686
H 1.047956 -2.801513 -2.579765
H -1.150378 -2.517260 -1.476510
H -2.389465 -1.757631 0.126008
H -2.646163 1.278038 -0.191397
H -2.910156 0.079451 -1.487632
H -3.955931 0.090834 -0.045575
H -1.770743 0.458047 2.158406
H -3.028552 -0.786427 2.218120
H -1.311748 -1.246039 2.352990
H -0.655378 2.328171 -0.455196
H -0.388807 3.114607 1.084694