30
Extracted from mol_608.out
O -4.522609 -1.489082 -1.636349
B -4.599931 -0.420215 -0.794958
O -5.779025 0.262844 -0.796010
C -3.386948 0.003816 0.134190
C -3.619074 0.580725 1.400674
C -2.538594 0.943045 2.201501
Cl -2.829134 1.646399 3.779940
C -1.214295 0.761590 1.784383
C -0.976693 0.192890 0.523305
O 0.255895 -0.027376 0.007677
C 1.412555 0.341546 0.758128
C 2.638529 0.006547 -0.051765
C 3.171872 0.938698 -0.954157
C 4.287688 0.618246 -1.731944
C 4.882102 -0.642480 -1.616399
C 4.357015 -1.579697 -0.720904
C 3.240916 -1.255743 0.055173
C -2.064560 -0.184648 -0.285748
H -3.705756 -1.990355 -1.532577
H -5.753154 1.061741 -0.257188
H -4.633827 0.730729 1.776358
H -0.404575 1.064327 2.446036
H 1.422738 -0.203541 1.719688
H 1.380559 1.423399 0.982205
H 2.707901 1.925071 -1.047542
H 4.695456 1.354852 -2.429322
H 5.756676 -0.893709 -2.222515
H 4.819164 -2.565910 -0.625830
H 2.831710 -1.991300 0.754085
H -1.832600 -0.612407 -1.265106