29
Extracted from mol_514.out
O -3.853374 1.545056 0.539797
B -3.640976 0.278359 0.079483
O -4.714820 -0.550891 -0.035285
C -2.246623 -0.260257 -0.459685
C -2.285113 -0.943662 -1.686041
C -1.113860 -1.380960 -2.305502
C 0.119477 -1.110742 -1.718977
C 0.217203 -0.427844 -0.491557
C 1.593141 -0.118216 0.006530
C 2.003823 1.209532 0.222216
C 3.313210 1.496522 0.612989
C 4.236494 0.462298 0.797688
C 3.840997 -0.861350 0.584742
C 2.532303 -1.148280 0.186964
C -0.985553 -0.045866 0.149790
C -0.983565 0.573943 1.534512
F -1.081735 1.938695 1.466964
F 0.099533 0.301216 2.262328
F -2.042865 0.163525 2.259618
H -3.055881 2.078993 0.644405
H -5.526986 -0.121954 0.268706
H -3.253647 -1.135105 -2.153902
H -1.159994 -1.916984 -3.257369
H 1.041397 -1.410559 -2.222854
H 1.290548 2.024694 0.077764
H 3.614417 2.535531 0.771624
H 5.260828 0.687998 1.105902
H 4.553931 -1.677421 0.730420
H 2.227690 -2.186271 0.028727