28
Extracted from mol_1721.out
O -1.721613 4.169060 -1.214281
B -0.679712 3.715325 -0.463833
O 0.104067 4.669747 0.109925
C -0.396115 2.166218 -0.269294
C 0.899043 1.685991 -0.010028
C 1.160729 0.318478 0.159842
C 2.573094 -0.097134 0.426852
O 3.502518 0.671721 0.518499
O 2.702590 -1.429813 0.557085
C 4.020438 -1.915749 0.814094
C 0.110565 -0.605566 0.078404
C -1.191078 -0.153578 -0.175893
C -2.356545 -1.086501 -0.276806
O -3.489890 -0.735733 -0.513105
O -2.008136 -2.370614 -0.077893
C -3.060382 -3.332210 -0.162202
C -1.429944 1.217616 -0.349528
H -2.204360 3.471474 -1.671438
H 0.779429 4.315530 0.699061
H 1.752440 2.367583 0.054396
H 3.934483 -3.006891 0.889627
H 4.704204 -1.641237 -0.003776
H 4.415711 -1.496960 1.752341
H 0.304866 -1.668803 0.211562
H -3.527694 -3.313514 -1.158769
H -3.837971 -3.127684 0.589708
H -2.597168 -4.309215 0.023771
H -2.463568 1.522456 -0.538319