16
Extracted from mol_1259.out
O 2.714138 1.136418 0.376097
B 2.014698 -0.030591 0.283632
O 2.698770 -1.199827 0.385149
C 0.441725 -0.064312 0.062834
C -0.326722 1.104820 -0.062089
F 0.304727 2.306994 0.010098
C -1.702779 1.138328 -0.256684
C -2.385280 -0.078114 -0.335511
C -1.690453 -1.282403 -0.219981
C -0.308602 -1.252990 -0.025409
F 0.311643 -2.429744 0.079952
H 2.157648 1.921586 0.292426
H 3.642847 -1.035592 0.517276
H -2.210958 2.099980 -0.342345
H -3.467263 -0.085714 -0.488279
H -2.194140 -2.248840 -0.277163