25
Extracted from mol_1744.out
O -1.378187 2.458316 1.720636
B -0.280186 2.300024 0.961608
O 0.454359 3.425858 0.701760
C 0.258855 0.887287 0.401309
C 1.660074 0.779640 0.308111
C 2.302607 -0.361225 -0.180734
C 3.812133 -0.435814 -0.187059
F 4.369978 0.774913 -0.363152
F 4.283695 -0.922311 0.975382
F 4.265656 -1.238504 -1.164827
C 1.543514 -1.445120 -0.627711
C 0.155103 -1.375507 -0.553176
C -0.491420 -0.243544 -0.023891
C -1.984544 -0.308077 0.100277
O -2.653758 0.290172 0.922305
O -2.540149 -1.149104 -0.778673
C -3.958779 -1.323986 -0.694791
H -1.925001 1.648874 1.739092
H 1.181402 3.292671 0.085021
H 2.281372 1.616214 0.636565
H 2.031960 -2.333716 -1.031885
H -0.447009 -2.215448 -0.900102
H -4.244453 -1.713851 0.293740
H -4.476018 -0.366858 -0.857716
H -4.221202 -2.040906 -1.482090