21
Extracted from mol_116.out
O 3.222971 -0.432616 -0.992004
B 2.326065 0.124136 -0.117095
O 2.798599 1.068614 0.744142
C 0.819331 -0.352771 -0.063639
C 0.599014 -1.741601 -0.174386
C -0.678767 -2.303598 -0.118310
C -1.773898 -1.462242 0.036524
C -1.596644 -0.071578 0.138859
C -2.828826 0.751409 0.294860
O -3.950032 0.291801 0.333665
C -0.300841 0.503254 0.095810
C -0.125591 2.006093 0.191361
H 2.821089 -1.044197 -1.620457
H 3.742069 1.236128 0.608039
H 1.460046 -2.409156 -0.289449
H -0.812633 -3.385795 -0.194446
H -2.794761 -1.849047 0.081810
H -2.677761 1.853986 0.379656
H -0.520896 2.400286 1.141957
H -0.659706 2.527411 -0.620022
H 0.931173 2.289481 0.143125