28
Extracted from mol_479.out
O -4.883471 1.805252 -0.186795
B -4.288030 0.578369 -0.187755
O -5.127977 -0.492587 -0.222179
C -2.712446 0.411184 -0.153180
C -1.847575 1.378797 -0.706098
C -0.461954 1.232926 -0.666530
C 0.138939 0.112265 -0.062564
C 1.626817 0.040117 0.006807
C 2.401782 0.205536 -1.156489
C 3.797155 0.174634 -1.097347
C 4.445497 -0.012754 0.127427
C 3.688626 -0.167938 1.292880
C 2.292991 -0.141974 1.233760
C -0.714458 -0.885156 0.472736
C -0.205815 -2.175590 1.022219
O -0.913302 -3.002500 1.555948
C -2.108758 -0.713162 0.423695
H -4.263356 2.531660 -0.059867
H -4.671208 -1.337931 -0.298906
H -2.264051 2.270867 -1.186736
H 0.177253 2.014098 -1.085815
H 1.902030 0.340838 -2.119280
H 4.380758 0.294069 -2.014090
H 5.537401 -0.035188 0.174017
H 4.186629 -0.304320 2.256476
H 1.710876 -0.240199 2.153848
H 0.884850 -2.365003 0.886857
H -2.709205 -1.516310 0.862872