20
Extracted from mol_1429.out
O 3.450067 0.810133 -1.390522
B 2.936856 0.804828 -0.129268
O 3.722434 1.271193 0.889013
C 1.472554 0.256879 0.075345
C 0.788892 0.348325 1.300734
C -0.509456 -0.139996 1.445355
C -1.179780 -0.755350 0.374074
S -2.803059 -1.442349 0.671455
C -3.867758 -0.387202 -0.378455
C -0.489353 -0.864378 -0.851697
Cl -1.222863 -1.655507 -2.230473
C 0.802494 -0.354982 -0.998961
H 4.355110 1.148918 -1.413970
H 3.325024 1.205052 1.764670
H 1.259468 0.824616 2.168050
H -1.034919 -0.046823 2.398566
H -3.604565 -0.487811 -1.440235
H -3.809385 0.665351 -0.065532
H -4.893187 -0.753873 -0.222766
H 1.301425 -0.447025 -1.965382