26
Extracted from mol_466.out
O -4.551845 0.117755 1.918132
B -3.425687 0.750671 1.485739
O -3.268548 2.041294 1.894387
C -2.357631 0.029455 0.561555
C -2.759133 -0.941321 -0.376040
C -1.806745 -1.574065 -1.177459
I -2.434453 -3.019887 -2.611205
C -0.449219 -1.270302 -1.063425
C -0.017584 -0.308000 -0.129805
C 1.429241 0.014213 0.008511
C 2.407702 -0.994163 -0.082606
C 3.764813 -0.692052 0.049338
C 4.174750 0.625761 0.274186
C 3.215213 1.638701 0.366372
C 1.858150 1.335990 0.235359
C -0.988454 0.329999 0.663079
H -4.574064 -0.818972 1.692245
H -2.512858 2.478546 1.486413
H -3.817050 -1.191130 -0.491593
H 0.278395 -1.760029 -1.712363
H 2.100424 -2.032045 -0.233414
H 4.506041 -1.493096 -0.016222
H 5.237006 0.862400 0.376888
H 3.525147 2.673831 0.533299
H 1.120997 2.141295 0.284299
H -0.654608 1.055153 1.411480