22
Extracted from mol_1873.out
O 3.134181 -1.230652 -1.048322
B 2.579306 -0.340160 -0.180575
O 3.406764 0.396760 0.606136
C 0.987126 -0.316940 -0.131728
C 0.339622 -1.545520 -0.348435
C -1.051190 -1.672826 -0.302222
C -1.837914 -0.549550 -0.047901
C -3.345031 -0.636992 0.005451
F -3.914354 0.156959 -0.919835
F -3.814950 -0.237944 1.202060
F -3.787738 -1.886104 -0.205870
C -1.228534 0.693866 0.155428
C 0.162431 0.807376 0.119349
C 0.767303 2.177451 0.329963
F 1.618227 2.511371 -0.652648
F 1.485801 2.227391 1.493339
F -0.150641 3.144912 0.417583
H 4.100403 -1.220011 -1.000636
H 2.965874 1.011677 1.206396
H 0.948172 -2.426004 -0.565131
H -1.523254 -2.642452 -0.469382
H -1.841604 1.577390 0.336980