25
Extracted from mol_271.out
O 2.015654 -2.238994 -0.291985
B 1.685835 -1.267839 0.610377
O 1.706573 -1.441078 1.965934
C 1.204848 0.135268 0.055332
C 2.129798 1.175997 -0.107168
Cl 3.824836 0.878157 0.285571
C 1.774013 2.442086 -0.574341
C 0.435262 2.677666 -0.889829
C -0.512948 1.662461 -0.743816
C -0.146721 0.389870 -0.277332
C -1.191686 -0.708350 -0.080422
C -1.833459 -0.609769 1.317516
C -2.261678 -0.749935 -1.181901
H 2.312533 -3.077703 0.083589
H 2.034848 -2.294962 2.275562
H 2.532336 3.218778 -0.687423
H 0.131291 3.661858 -1.256845
H -1.554206 1.869397 -1.000279
H -0.652291 -1.670650 -0.131308
H -2.372979 0.345180 1.433802
H -1.070882 -0.665540 2.109435
H -2.556008 -1.428053 1.477071
H -2.928260 0.127568 -1.145781
H -2.898363 -1.641576 -1.060716
H -1.808346 -0.789837 -2.185043