21
Extracted from mol_723.out
O 2.365349 -2.154662 0.395719
B 2.532122 -0.818490 0.158987
O 3.817044 -0.343317 0.102732
C 1.255637 0.071858 -0.028068
C 1.319735 1.442013 -0.329414
C 0.167159 2.217622 -0.492448
C -1.089202 1.628276 -0.354354
O -2.217904 2.354206 -0.505962
C -1.178962 0.247113 -0.051017
O -2.468304 -0.202679 0.056375
C -2.697228 -1.561652 0.362900
C -0.025580 -0.513165 0.107351
H 3.213838 -2.605369 0.500012
H 3.877667 0.606616 -0.049013
H 2.289027 1.939195 -0.448716
H 0.220250 3.282914 -0.727872
H -2.964820 1.748419 -0.368185
H -2.262713 -1.834935 1.341087
H -3.786568 -1.698419 0.401538
H -2.276430 -2.228421 -0.410834
H -0.090118 -1.577122 0.339181