25
Extracted from mol_1185.out
O 4.222600 0.295006 1.695593
B 3.082297 0.891910 1.247517
O 2.934255 2.209368 1.548364
C 1.989127 0.090465 0.417616
C 2.349159 -0.998040 -0.405837
C 1.376144 -1.681516 -1.122211
C 0.018557 -1.316345 -1.045690
C -0.944651 -2.098380 -1.831518
O -2.153344 -1.921897 -1.875844
C -0.363595 -0.215063 -0.219362
N -1.710023 0.128207 -0.163275
C -2.311754 1.173535 0.519616
O -1.709285 1.973848 1.209994
C -3.816888 1.232944 0.318771
C 0.640274 0.467303 0.497468
H 4.244119 -0.655835 1.540895
H 2.142050 2.607241 1.168720
H 3.396944 -1.298792 -0.499369
H 1.652457 -2.522287 -1.766500
H -0.485927 -2.924296 -2.429523
H -2.305121 -0.480091 -0.734205
H -4.293129 0.283659 0.613461
H -4.060229 1.411622 -0.741702
H -4.220767 2.051314 0.926941
H 0.326727 1.296120 1.130078