23
Extracted from mol_144.out
O -3.339811 0.537896 -0.156450
B -2.482314 -0.501355 0.023968
O -3.031524 -1.747305 0.169147
C -0.889977 -0.439073 0.065656
C -0.244384 -1.678197 0.273183
C 1.140430 -1.823557 0.229378
C 1.969820 -0.729417 -0.061718
C 3.466785 -0.887662 -0.162125
C 1.351702 0.506076 -0.279805
C -0.041334 0.670875 -0.194437
C -0.497965 2.089049 -0.429940
O -0.008599 2.807636 -1.277062
N -1.520960 2.553752 0.398401
H -2.903961 1.410208 -0.165692
H -3.995872 -1.703458 0.123399
H -0.865167 -2.556096 0.462123
H 1.585569 -2.807242 0.409471
H 3.981971 0.083421 -0.116176
H 3.748693 -1.366733 -1.116333
H 3.859622 -1.525170 0.646282
H 1.958257 1.382294 -0.521690
H -1.577546 2.163785 1.335852
H -1.663439 3.560271 0.344566