22
Extracted from mol_1874.out
O -1.535832 2.839010 -0.415314
B -1.746244 1.609209 0.131612
O -2.900825 1.446692 0.820607
C -0.615746 0.484197 0.012644
C 0.707464 0.883287 0.268216
C 1.777541 -0.017036 0.210284
C 3.173958 0.450031 0.553561
F 3.413711 0.347666 1.873150
F 3.362078 1.737990 0.216690
F 4.110569 -0.277149 -0.077517
C 1.546534 -1.351667 -0.128922
C 0.243963 -1.775612 -0.396152
C -0.823255 -0.874718 -0.318892
C -2.221048 -1.381930 -0.601765
F -2.229930 -2.630827 -1.082029
F -2.869947 -0.603665 -1.481733
F -2.972768 -1.398756 0.533743
H -0.740024 2.895100 -0.955754
H -3.030489 0.561586 1.181379
H 0.914029 1.925793 0.523695
H 2.378469 -2.055271 -0.193782
H 0.057790 -2.813933 -0.673721