19
Extracted from mol_1612.out
O -2.725833 -1.032109 -0.837783
B -1.928399 -0.527991 0.142816
O -2.479582 -0.285225 1.364686
C -0.377334 -0.395591 -0.194491
C 0.196651 -1.507960 -0.828412
C 1.564646 -1.563425 -1.093975
C 2.386844 -0.504976 -0.715648
C 1.842058 0.627102 -0.092899
I 3.302786 2.091705 0.465804
C 0.455852 0.703151 0.147699
C -0.237300 1.900362 0.776665
F -1.435774 2.118650 0.200570
F 0.432038 3.046459 0.704694
F -0.485964 1.670785 2.099703
H -3.640297 -1.128385 -0.536356
H -1.882918 0.117099 2.008436
H -0.447583 -2.341565 -1.116862
H 1.999703 -2.435080 -1.590190
H 3.460408 -0.553006 -0.904457