33
Extracted from mol_673.out
O -2.513576 3.281316 1.268656
B -1.563180 2.360417 0.930544
O -0.252390 2.650638 1.142229
C -2.070526 0.997503 0.304820
C -3.446989 0.784977 0.129208
C -3.958373 -0.395511 -0.414808
C -3.070420 -1.401896 -0.801237
C -3.594919 -2.661331 -1.447955
F -2.747904 -3.697597 -1.295551
F -3.775275 -2.497797 -2.773601
F -4.780964 -3.031465 -0.935848
C -1.689189 -1.235749 -0.642294
C -1.197536 -0.044232 -0.093578
O 0.140631 0.178813 0.091661
C 1.099374 -0.818497 -0.276237
C 2.477455 -0.299557 0.041604
C 3.189531 0.454405 -0.903846
C 4.452658 0.967667 -0.597747
C 5.016815 0.733520 0.660493
C 4.314338 -0.014813 1.610512
C 3.051223 -0.526793 1.301895
H -2.114645 4.078877 1.641358
H 0.314027 1.913639 0.859686
H -4.132090 1.578740 0.436116
H -5.034355 -0.535664 -0.532651
H -1.023007 -2.042830 -0.941027
H 1.004251 -1.037924 -1.354261
H 0.893777 -1.748152 0.282865
H 2.750630 0.638831 -1.888882
H 4.998909 1.550913 -1.343707
H 6.005971 1.132737 0.900111
H 4.752104 -0.201449 2.594638
H 2.503646 -1.111740 2.046834