37
Extracted from mol_590.out
O -5.078633 -1.073178 0.312370
B -4.038582 -1.980755 0.315357
O -4.405649 -3.297648 0.368171
C -2.558302 -1.482436 0.254861
C -1.514271 -2.424279 0.394885
C -0.169873 -2.092317 0.345209
C 0.186925 -0.745665 0.143683
O 1.512822 -0.482312 0.099453
C 1.959158 0.861016 -0.093062
C 3.466462 0.865551 -0.104167
C 4.187148 0.956133 1.096174
C 5.584109 0.928264 1.092474
C 6.278494 0.807814 -0.115857
C 5.570050 0.715361 -1.317969
C 4.172611 0.742662 -1.309719
C -0.803833 0.232982 0.003607
C -2.164551 -0.124969 0.062105
N -3.164649 0.851102 -0.070929
C -3.046801 2.208359 -0.280646
O -1.991915 2.808350 -0.397985
C -4.391503 2.921738 -0.352325
H -5.940054 -1.511638 0.338140
H -3.670911 -3.919625 0.322768
H -1.762118 -3.478876 0.562042
H 0.617892 -2.839015 0.458852
H 1.573879 1.500553 0.720910
H 1.562097 1.254742 -1.045312
H 3.646390 1.050548 2.042523
H 6.133207 1.003160 2.035017
H 7.371754 0.789094 -0.120623
H 6.107671 0.622777 -2.265526
H 3.620632 0.668982 -2.251418
H -0.560639 1.279225 -0.151996
H -4.112209 0.486474 0.013816
H -5.024810 2.495217 -1.147445
H -4.937986 2.820857 0.600016
H -4.214016 3.984445 -0.557455