17
Extracted from mol_747.out
O 2.794239 1.092539 -0.307787
B 2.144115 -0.087755 -0.151403
O 2.912326 -1.208729 -0.104636
C 0.546961 -0.150976 -0.027460
C -0.156794 -1.352257 0.136689
F 0.545807 -2.512844 0.190526
C -1.539515 -1.464947 0.251123
C -2.295759 -0.293942 0.199223
C -1.667476 0.941467 0.036947
C -0.272183 1.003284 -0.073635
O 0.349303 2.211215 -0.233184
H 2.181288 1.841065 -0.330965
H 2.393819 -2.013978 0.007677
H -1.992812 -2.449257 0.376473
H -3.384041 -0.342306 0.285488
H -2.258468 1.861631 -0.004505
H -0.300813 2.925789 -0.250571