18
Extracted from mol_1554.out
O -2.479036 -0.087586 1.393069
B -1.936588 -0.176982 0.143486
O -2.631198 -0.391205 -1.012148
C -0.352800 -0.305383 0.059871
C 0.306591 -1.539998 0.175361
C 1.698483 -1.642121 0.102138
C 2.469810 -0.489062 -0.091824
Br 4.366874 -0.625148 -0.190667
C 1.861701 0.758547 -0.212813
C 0.468392 0.809446 -0.132802
N -0.184457 2.129051 -0.259360
O -1.409320 2.149225 -0.183781
O 0.510986 3.112348 -0.428923
H -3.440007 -0.005956 1.426469
H -3.589974 -0.304304 -0.945452
H -0.278355 -2.451173 0.327097
H 2.187311 -2.613811 0.195069
H 2.431584 1.674110 -0.364789