24
Extracted from mol_1868.out
O 0.228289 -3.432321 -1.111231
B 0.907039 -2.247589 -1.137607
O 2.048515 -2.234865 -1.873109
C 0.319590 -0.965621 -0.395050
C -1.078856 -0.821974 -0.363113
C -1.751039 0.275225 0.206547
B -3.328487 0.375876 0.198113
O -4.019698 1.013731 1.186362
O -4.083925 -0.172959 -0.796266
C -0.943563 1.273908 0.776602
C 0.449360 1.184901 0.768485
C 1.087987 0.078905 0.185274
S 2.866879 -0.093842 0.181075
C 3.478030 1.573217 0.569080
H -0.522283 -3.427133 -0.507010
H 2.514758 -1.387179 -1.838957
H -1.681572 -1.615667 -0.821919
H -3.459754 1.293577 1.918978
H -3.558466 -0.516663 -1.527471
H -1.403555 2.159258 1.229467
H 1.030708 1.986678 1.225195
H 4.568049 1.520549 0.435738
H 3.066150 2.325072 -0.120037
H 3.265840 1.854915 1.610852