27
Extracted from mol_303.out
O 2.449334 2.840168 0.529387
B 2.896496 1.617116 0.132477
O 4.247029 1.423881 0.032436
C 1.829362 0.496561 -0.180450
C 2.171199 -0.706612 -0.821317
C 1.197216 -1.666343 -1.074826
C -0.142162 -1.471299 -0.688906
C -1.061994 -2.592231 -1.018763
O -2.233904 -2.697246 -0.730171
C -0.524662 -0.259352 -0.046075
C -1.957013 0.005995 0.410483
C -2.342335 1.492569 0.416788
C -2.205715 -0.630176 1.793621
C 0.482399 0.690341 0.180824
H 3.175270 3.452125 0.711606
H 4.504246 0.524310 -0.199763
H 3.200265 -0.899996 -1.143760
H 1.466124 -2.597225 -1.584101
H -0.556028 -3.409446 -1.599414
H -2.621686 -0.511920 -0.294952
H -3.423027 1.593034 0.606788
H -2.123863 1.978212 -0.547843
H -1.824091 2.061024 1.206448
H -2.027224 -1.714925 1.771450
H -1.547866 -0.183180 2.558125
H -3.250494 -0.469711 2.106889
H 0.223125 1.634326 0.662225