36
Extracted from mol_581.out
O 6.139639 0.342102 -0.213035
B 5.217271 1.223142 0.288381
O 5.673817 2.425672 0.743782
C 3.676424 0.931961 0.368188
C 2.791035 1.911965 0.848447
C 1.413952 1.688679 0.935336
C 0.871162 0.457451 0.538866
O -0.435218 0.122261 0.602743
C -1.412083 1.130323 0.845507
C -2.784334 0.564081 0.573301
C -3.801593 0.658807 1.531864
C -5.083284 0.166147 1.262128
C -5.354837 -0.435775 0.031061
C -4.341050 -0.540758 -0.929120
C -3.063967 -0.042306 -0.663156
C 1.748595 -0.533857 0.046392
O 1.255420 -1.784502 -0.295378
C 0.397973 -1.901709 -1.354824
O 0.135323 -0.997784 -2.100555
C -0.154697 -3.301064 -1.421434
C 3.113083 -0.296837 -0.031400
H 5.766156 -0.484702 -0.537834
H 6.631476 2.507520 0.643051
H 3.193365 2.876381 1.167728
H 0.765337 2.474207 1.324978
H -1.214770 1.991140 0.179183
H -1.341307 1.489551 1.888140
H -3.590704 1.120997 2.501046
H -5.867840 0.247628 2.019266
H -6.354508 -0.824580 -0.181216
H -4.548663 -1.011518 -1.894044
H -2.271596 -0.130051 -1.411485
H 0.640816 -4.044334 -1.266254
H -0.650124 -3.456116 -2.387639
H -0.888924 -3.427748 -0.609127
H 3.728655 -1.116374 -0.416477