23
Extracted from mol_49.out
O 0.422070 2.824382 -0.211290
B -0.610257 1.936358 -0.168597
O -1.876040 2.454741 -0.242579
C -0.404190 0.365619 -0.039324
C 0.907435 -0.178623 0.041065
O 1.954461 0.716082 -0.000449
C 3.291087 0.263365 0.067018
C 1.146669 -1.553258 0.157093
C 0.059948 -2.426919 0.194918
C -1.238685 -1.933289 0.118473
C -1.488865 -0.554355 0.002444
C -2.934578 -0.115906 -0.073078
H 1.269216 2.351506 -0.150864
H -1.831544 3.417944 -0.316830
H 3.537325 -0.407250 -0.774694
H 3.497396 -0.260236 1.016935
H 3.926060 1.158040 0.008039
H 2.159805 -1.948831 0.217954
H 0.235237 -3.502636 0.285011
H -2.082924 -2.626907 0.149064
H -3.192250 0.573843 0.744099
H -3.143857 0.434048 -1.002479
H -3.603520 -0.987720 -0.021926