17
Extracted from mol_755.out
O -2.796806 0.418096 1.158880
B -2.099809 -0.447953 0.382350
O -2.796013 -1.524046 -0.091058
C -0.558592 -0.235211 0.040032
C 0.179635 -1.203990 -0.663483
C 1.531030 -1.063721 -0.984162
C 2.187718 0.102019 -0.583969
Cl 3.877677 0.325693 -0.963652
C 1.510942 1.098250 0.121814
C 0.156164 0.921396 0.428681
O -0.517465 1.886407 1.126315
H -2.248516 1.165808 1.437138
H -2.290981 -2.101905 -0.671422
H -0.315092 -2.128720 -0.979547
H 2.069874 -1.838515 -1.530895
H 2.041309 2.003095 0.429832
H 0.068925 2.623298 1.343147