23
Extracted from mol_1156.out
O 4.239858 -0.702114 0.849810
B 2.966278 -1.029819 0.468553
O 2.675566 -2.340387 0.252429
C 1.818725 0.037293 0.273871
C 2.113955 1.405971 0.146529
C 1.076977 2.324752 -0.019482
Cl 1.441550 4.030885 -0.186084
C -0.252317 1.909592 -0.056893
C -0.561751 0.541692 0.067395
N -1.922498 0.187699 0.018830
C -2.509253 -1.060298 0.141198
O -1.886825 -2.089057 0.310764
C -4.029511 -1.025645 0.051241
C 0.479889 -0.389688 0.227712
H 4.362642 0.231089 1.058262
H 3.433957 -2.915371 0.421800
H 3.142616 1.775845 0.155901
H -1.043480 2.652446 -0.185265
H -2.559177 0.964872 -0.115274
H -4.402284 -2.056439 0.085146
H -4.365954 -0.546674 -0.883063
H -4.458690 -0.460219 0.895359
H 0.239726 -1.446424 0.317242