20
Extracted from mol_1708.out
O 3.208704 0.211060 1.366177
B 2.512418 -0.409978 0.397496
O 3.183992 -1.320309 -0.366238
C 0.927624 -0.239423 0.153650
C 0.231237 -1.442298 -0.094288
C -1.143247 -1.483742 -0.332392
C -1.886242 -0.297507 -0.364828
C -3.352088 -0.317328 -0.632003
O -4.047381 0.668611 -0.671466
C -1.233285 0.920974 -0.143953
C 0.131734 0.928297 0.132141
N 0.704274 2.270094 0.406075
O 0.216170 3.218181 -0.174823
O 1.610500 2.357558 1.228604
H 2.701073 0.944822 1.749889
H 2.667145 -1.695802 -1.086883
H 0.789575 -2.382471 -0.084995
H -1.642255 -2.443195 -0.499970
H -3.780061 -1.339723 -0.799474
H -1.799890 1.852183 -0.182717