20
Extracted from mol_1318.out
O 2.069962 2.275477 0.255976
B 2.329979 0.936119 0.141791
O 3.583818 0.391687 0.164238
C 1.107544 -0.036003 -0.024791
C -0.207943 0.460512 -0.077546
C -1.306774 -0.396978 -0.231945
C -2.738846 0.076845 -0.305375
O -3.630262 -0.640945 -0.726852
N -2.974362 1.356226 0.118251
C -1.091841 -1.777690 -0.356573
C 0.208076 -2.266520 -0.298265
F 0.412967 -3.588728 -0.406569
C 1.304701 -1.423704 -0.133176
H 2.839379 2.849946 0.346218
H 4.316447 1.009994 0.269205
H -0.350468 1.542024 -0.022923
H -3.940751 1.660344 0.139022
H -2.298919 1.872601 0.664681
H -1.940892 -2.448059 -0.499713
H 2.308186 -1.853147 -0.095981