25
Extracted from mol_264.out
O 3.019671 2.222311 -0.697361
B 3.175766 0.882835 -0.500440
O 4.440486 0.367368 -0.588384
C 1.894434 0.020656 -0.184453
C 1.965056 -1.367490 0.023520
C 0.803277 -2.081783 0.300900
F 0.883685 -3.409202 0.498628
C -0.440275 -1.463591 0.380199
C -0.540346 -0.076794 0.176039
C -1.888941 0.629035 0.252413
C -2.525475 0.508225 1.648137
C -2.852434 0.144518 -0.845507
C 0.632212 0.640634 -0.102980
H 3.861005 2.660607 -0.882538
H 4.498310 -0.582933 -0.438275
H 2.905286 -1.925842 -0.022986
H -1.314596 -2.080238 0.601265
H -1.693388 1.699993 0.070436
H -1.848912 0.884505 2.431706
H -3.462533 1.086946 1.699614
H -2.770061 -0.539452 1.891051
H -3.795441 0.715201 -0.816300
H -2.411784 0.265783 -1.847699
H -3.105790 -0.921337 -0.717940
H 0.570791 1.720046 -0.264155