22
Extracted from mol_156.out
O 3.408181 0.047535 1.103214
B 2.502024 -0.388192 0.182268
O 2.931220 -1.395354 -0.631713
C 1.072343 0.293479 0.052572
C 1.043909 1.700253 -0.047360
C -0.149875 2.401871 -0.197439
C -1.352846 1.696565 -0.234748
C -1.357339 0.302131 -0.121807
C -2.692738 -0.413073 -0.154157
F -2.932995 -1.093415 0.986121
F -2.765100 -1.307677 -1.161929
F -3.719478 0.437860 -0.319357
C -0.149297 -0.422902 0.021601
C -0.166657 -1.931296 0.167490
H 3.045786 0.711122 1.701370
H 2.293438 -1.627293 -1.315797
H 1.986839 2.256269 -0.019670
H -0.149133 3.491129 -0.285318
H -2.297947 2.228715 -0.348930
H 0.842867 -2.336684 0.307588
H -0.615761 -2.414410 -0.714352
H -0.777441 -2.236631 1.030353