25
Extracted from mol_292.out
O 3.232727 -1.562220 1.856656
B 3.109616 -0.982428 0.634549
O 4.190661 -1.098232 -0.189813
C 1.864054 -0.092678 0.184343
C 2.190623 1.206397 -0.255555
C 1.203071 2.108937 -0.641940
C -0.131248 1.714116 -0.606230
C -0.536110 0.427738 -0.192085
C -2.046166 0.156158 -0.226205
C -2.673499 -0.090660 1.158693
C -2.470181 -0.895864 -1.268427
C 0.498701 -0.449049 0.201377
I 0.077506 -2.477455 0.835429
H 2.432730 -1.499798 2.392198
H 4.044071 -0.703828 -1.057024
H 3.241403 1.511672 -0.279184
H 1.468829 3.116939 -0.970971
H -0.906129 2.422539 -0.913037
H -2.478500 1.107759 -0.577596
H -3.772608 -0.095912 1.070948
H -2.371005 -1.052515 1.596090
H -2.396465 0.707377 1.866028
H -2.060003 -0.655456 -2.262342
H -2.142608 -1.911078 -1.003221
H -3.569470 -0.912460 -1.352683