23
Extracted from mol_973.out
O -3.552619 -0.669986 -0.139215
B -2.431677 -0.493480 -0.891248
O -2.517137 -0.725958 -2.231537
C -0.996084 -0.106895 -0.328006
C -0.724290 0.765109 0.759737
C -1.836617 1.482231 1.476146
F -2.663543 2.126284 0.633434
F -2.628956 0.612121 2.182741
F -1.393837 2.379332 2.366556
C 0.590787 0.994394 1.169494
C 1.668093 0.370072 0.534553
C 1.421030 -0.490517 -0.543625
O 2.378588 -1.144188 -1.239697
C 3.734855 -0.970328 -0.888315
C 0.094780 -0.709134 -0.961623
H -3.443914 -0.491658 0.803980
H -3.411221 -0.993552 -2.485675
H 0.786763 1.677711 1.997204
H 2.681292 0.569785 0.883671
H 3.937046 -1.305930 0.145062
H 4.319108 -1.587670 -1.583885
H 4.052981 0.083024 -0.990007
H -0.065426 -1.370765 -1.814991