26
Extracted from mol_357.out
O 4.491021 1.248215 -0.044294
B 3.784456 0.152372 0.351581
O 4.513125 -0.872089 0.875296
C 2.208135 0.076662 0.207462
C 1.528551 0.714461 -0.849593
C 0.142156 0.642979 -0.980769
C -0.650698 -0.057685 -0.058441
C -2.163944 -0.124843 -0.214659
C -2.566323 -0.866435 -1.502707
C -2.807000 1.272008 -0.143648
C 0.021430 -0.696789 1.011724
C -0.710098 -1.434772 2.007437
N -1.275863 -2.038468 2.823067
C 1.424028 -0.629511 1.129037
H 3.934685 1.989055 -0.309213
H 3.995562 -1.666539 1.047675
H 2.097918 1.269685 -1.602690
H -0.338107 1.145249 -1.824535
H -2.555097 -0.708208 0.633995
H -2.230003 -0.327560 -2.404092
H -2.135511 -1.879486 -1.534792
H -3.662574 -0.962159 -1.562105
H -2.544428 1.789726 0.792353
H -3.904941 1.188964 -0.188197
H -2.488590 1.910915 -0.984180
H 1.892109 -1.135745 1.978385