25
Extracted from mol_288.out
O -2.635668 -2.034266 0.665230
B -1.540739 -1.693732 -0.069581
O -0.834307 -2.713738 -0.655161
C -1.219001 -0.154921 -0.263218
C -2.301477 0.630578 -0.697864
C -2.145513 1.984942 -0.983204
C -0.892044 2.571891 -0.822896
C 0.188957 1.806571 -0.366758
I 2.009830 2.947315 -0.190275
C 0.065685 0.433245 -0.065913
C 1.183303 -0.457232 0.497825
C 1.657520 -0.035552 1.901461
C 2.351599 -0.695616 -0.477815
H -2.781895 -2.990945 0.667208
H -0.100909 -2.414299 -1.205246
H -3.283124 0.163448 -0.812808
H -2.989886 2.587903 -1.327594
H -0.752927 3.631281 -1.045558
H 0.717139 -1.442076 0.642030
H 2.342260 -0.798720 2.307352
H 0.803421 0.052507 2.591509
H 2.192621 0.924381 1.899217
H 1.990593 -1.062473 -1.454114
H 3.036874 -1.454991 -0.065983
H 2.937690 0.214499 -0.667844