34
Extracted from mol_664.out
O 0.398796 -2.415715 -0.323729
B -0.938278 -2.168021 -0.288326
O -1.809190 -3.213056 -0.437281
C -1.556901 -0.728655 -0.083537
C -2.955149 -0.583651 -0.060246
C -3.577529 0.660723 0.116165
S -5.339078 0.925401 0.156864
C -6.023431 -0.736528 -0.103141
C -2.762847 1.793265 0.275135
C -1.371438 1.686055 0.258145
C -0.768739 0.432574 0.079067
O 0.595534 0.259180 0.052245
C 1.465134 1.381165 0.197854
C 2.890926 0.899044 0.114743
C 3.613815 0.598850 1.278782
C 4.924287 0.118934 1.198686
C 5.524531 -0.070540 -0.049829
C 4.810916 0.222041 -1.217037
C 3.502084 0.703600 -1.133733
H 0.899811 -1.591163 -0.205480
H -1.334816 -4.046783 -0.554686
H -3.548581 -1.489582 -0.186835
H -5.739473 -1.427973 0.704447
H -7.115463 -0.608874 -0.093479
H -5.722340 -1.154393 -1.075572
H -3.218803 2.777815 0.414224
H -0.774694 2.589363 0.385570
H 1.256416 2.115125 -0.601483
H 1.278543 1.873192 1.169099
H 3.145582 0.743645 2.256869
H 5.477999 -0.108239 2.113498
H 6.549646 -0.445162 -0.113756
H 5.276622 0.076335 -2.195331
H 2.946105 0.932028 -2.047910