21
Extracted from mol_813.out
O 3.888224 -0.195741 -0.646144
B 2.879768 0.562871 -0.125628
O 3.205937 1.771350 0.425956
C 1.414608 -0.001617 -0.193321
C 1.155122 -1.268240 -0.754316
C -0.138796 -1.775766 -0.816579
C -1.222802 -1.034594 -0.320857
O -2.488050 -1.543336 -0.386918
C -1.007762 0.239810 0.247739
C -2.060515 1.166279 0.822995
O -1.743462 2.252755 1.287998
N -3.351211 0.741098 0.798286
C 0.311835 0.713945 0.291868
H 4.747159 0.237718 -0.553283
H 2.456539 2.261800 0.784076
H 1.985500 -1.860847 -1.146550
H -0.325528 -2.762427 -1.255063
H -2.467139 -2.417015 -0.800178
H -3.609991 -0.158637 0.414151
H -4.049466 1.364794 1.184032
H 0.420031 1.705797 0.741735