18
Extracted from mol_1628.out
O -3.033895 1.098836 -0.920849
B -2.442792 0.286337 -0.010534
O -3.276667 -0.344398 0.862636
C -0.879835 -0.050684 -0.000638
C -0.548732 -1.421445 -0.036303
C 0.772936 -1.870335 -0.040153
C 1.806899 -0.940919 -0.000250
C 1.506965 0.424831 0.011899
N 2.683494 1.326814 0.009880
O 2.633887 2.323516 -0.686537
O 3.638901 0.980173 0.685245
C 0.178824 0.882263 0.017548
I -0.302718 2.958416 0.192527
H -2.413844 1.559586 -1.498593
H -2.815867 -0.873170 1.523567
H -1.359092 -2.156382 -0.063594
H 0.997207 -2.939130 -0.067604
H 2.854328 -1.244307 0.021754