21
Extracted from mol_1686.out
O -2.513242 -2.351539 -0.428325
B -2.465684 -0.998699 -0.299646
O -3.639975 -0.300763 -0.319232
C -1.044363 -0.330181 -0.130990
C 0.091170 -1.141380 0.036577
C 1.370591 -0.586536 0.194013
C 2.556763 -1.511415 0.344897
F 3.674763 -0.849126 0.680581
F 2.335731 -2.442156 1.290897
F 2.809553 -2.172166 -0.800362
C 1.540011 0.796119 0.185972
C 0.422248 1.629140 0.015126
C 0.594807 3.105823 0.000952
O 1.652679 3.674184 0.134420
C -0.848200 1.061975 -0.140713
H -3.417073 -2.683911 -0.513748
H -3.556602 0.649266 -0.181141
H -0.032874 -2.226920 0.046834
H 2.523523 1.252852 0.310098
H -0.356675 3.682325 -0.147390
H -1.697150 1.743110 -0.278822