27
Extracted from mol_361.out
O 0.754205 1.252099 -2.461910
B 1.014669 1.410488 -1.133410
O 1.091044 2.682342 -0.627515
C 0.913738 0.109295 -0.211681
C 2.033121 -0.704891 0.001168
N 3.312403 -0.273024 -0.594085
O 4.277995 -1.008280 -0.510389
O 3.326444 0.828340 -1.139467
C 2.020409 -1.882024 0.750060
C 0.812416 -2.265349 1.326755
C -0.329594 -1.477033 1.147224
C -0.303314 -0.294475 0.387954
C -1.572364 0.528695 0.166604
C -2.507651 0.567534 1.384422
C -2.319856 0.050385 -1.094199
H 0.818902 2.089829 -2.941436
H 1.291566 2.719934 0.314262
H 2.936552 -2.460305 0.867469
H 0.757792 -3.179000 1.923817
H -1.264377 -1.796548 1.612998
H -1.243810 1.565351 -0.019206
H -2.980583 -0.409833 1.575810
H -1.976016 0.871430 2.300651
H -3.323022 1.288165 1.211869
H -3.211842 0.672932 -1.274904
H -2.653922 -0.994665 -0.979324
H -1.674905 0.108606 -1.983535