26
Extracted from mol_1222.out
O 0.140828 3.456706 -0.347261
B -0.426302 2.247031 -0.073108
O -1.743019 2.269775 0.325800
C 0.329884 0.873275 -0.195371
C 1.725326 0.899854 -0.364868
C 2.490555 -0.257141 -0.504062
C 3.988030 -0.186140 -0.630039
F 4.459245 -1.089292 -1.509765
F 4.403506 1.029731 -1.038626
F 4.605763 -0.433298 0.543195
C 1.842515 -1.499182 -0.479170
C 0.466073 -1.578861 -0.305530
C -0.304731 -0.405575 -0.151432
N -1.688259 -0.462287 0.040750
C -2.525801 -1.563848 0.079621
O -2.159885 -2.715754 -0.056503
C -3.987526 -1.195868 0.292727
H 1.041821 3.420831 -0.688313
H -2.102566 3.167635 0.349377
H 2.250706 1.858653 -0.386625
H 2.420822 -2.418447 -0.599317
H -0.038174 -2.541783 -0.285500
H -2.127674 0.445702 0.182463
H -4.393668 -0.713379 -0.612214
H -4.554272 -2.114039 0.489770
H -4.113201 -0.494298 1.133069