30
Extracted from mol_619.out
O 5.737437 0.664732 -0.830825
B 4.400726 0.872825 -0.699548
O 3.921950 2.125686 -0.956352
C 3.321657 -0.214323 -0.271086
C 3.539405 -1.571376 0.050329
Br 5.300028 -2.373711 0.020889
C 2.499316 -2.424891 0.411058
C 1.184127 -1.951610 0.466510
C 0.923037 -0.609051 0.155824
O -0.306036 -0.035832 0.175735
C -1.439496 -0.820916 0.534201
C -2.667149 0.052619 0.484841
C -3.378812 0.213276 -0.713319
C -4.497309 1.048870 -0.770214
C -4.915943 1.736420 0.373639
C -4.211862 1.585197 1.572455
C -3.093303 0.749009 1.625282
C 1.990066 0.229200 -0.205493
H 6.012656 -0.244060 -0.634406
H 4.633787 2.728242 -1.209396
H 2.706804 -3.469058 0.652471
H 0.388190 -2.640011 0.751575
H -1.542887 -1.670578 -0.166076
H -1.302707 -1.235560 1.550070
H -3.052119 -0.321560 -1.610041
H -5.044662 1.163469 -1.709668
H -5.792417 2.388690 0.331068
H -4.535101 2.120152 2.469475
H -2.542766 0.634477 2.563746
H 1.763382 1.269669 -0.443746