22
Extracted from mol_1051.out
O -1.776285 -2.381292 0.983978
B -1.148639 -1.641093 0.031105
O -0.525085 -2.322260 -0.960703
C -1.098962 -0.042153 0.100315
C -2.220934 0.796856 -0.028929
I -4.164740 -0.043669 -0.356415
C -2.138490 2.191745 0.037939
C -0.894860 2.790836 0.250652
C 0.247557 2.002250 0.389812
C 0.127789 0.616009 0.307759
O 1.289471 -0.133998 0.528803
C 1.970723 -0.652944 -0.530210
O 1.589870 -0.552785 -1.669891
C 3.198694 -1.388968 -0.072252
H -2.236217 -1.849206 1.643441
H -0.057458 -1.748472 -1.587510
H -3.033359 2.806111 -0.072669
H -0.820116 3.879655 0.309715
H 1.229396 2.445628 0.566116
H 3.891575 -1.505552 -0.914756
H 2.888839 -2.389830 0.272170
H 3.681232 -0.876866 0.771528