24
Extracted from mol_1832.out
O -2.020802 2.457259 0.114837
B -0.799631 1.917878 0.364223
O 0.083589 2.626422 1.132442
C -0.304493 0.509976 -0.181054
C 1.059204 0.204373 0.003222
C 1.630816 -0.988849 -0.462070
S 3.337777 -1.435856 -0.271349
C 4.059686 -0.022002 0.611675
C 0.809513 -1.913380 -1.133991
C -0.542268 -1.639729 -1.318698
C -1.108534 -0.444317 -0.846952
S -2.867096 -0.193873 -1.175956
C -3.604766 -0.661553 0.436840
H -2.556736 1.877567 -0.464602
H -0.294287 3.473458 1.404622
H 1.668959 0.941745 0.525048
H 3.601028 0.118437 1.601717
H 5.122103 -0.272265 0.743533
H 3.982241 0.906563 0.026810
H 1.231718 -2.849047 -1.511514
H -1.176289 -2.361422 -1.839615
H -3.351309 -1.700759 0.690019
H -4.694863 -0.569695 0.320283
H -3.265561 0.019068 1.230530