18
Extracted from mol_1549.out
O 2.553120 1.008397 1.073951
B 1.785280 0.811946 -0.036408
O 2.244619 1.204361 -1.251483
C 0.443318 -0.064393 -0.028467
C -0.830307 0.522849 0.002063
N -0.903555 1.997377 0.103321
O -1.993168 2.531007 0.014640
O 0.151916 2.593575 0.284047
C -2.029395 -0.188595 -0.039880
C -1.967360 -1.579602 -0.110059
C -0.727251 -2.223944 -0.137326
C 0.449494 -1.466510 -0.097738
Br 2.116667 -2.405249 -0.140556
H 2.165507 0.689206 1.896083
H 3.072695 1.699147 -1.182090
H -2.975153 0.351997 -0.015864
H -2.886678 -2.169015 -0.142116
H -0.669746 -3.312551 -0.192119