35
Extracted from mol_206.out
O 1.581352 -3.438294 1.994527
B 1.717263 -2.450207 1.059213
O 2.937136 -2.326938 0.455297
C 0.437248 -1.586616 0.724218
C -0.811835 -2.133465 1.076648
C -2.016767 -1.517971 0.736019
C -2.028180 -0.313128 0.019789
C -3.340123 0.365607 -0.354611
C -3.515443 0.480819 -1.879170
C -3.495757 1.735120 0.330539
C -0.789856 0.249269 -0.325920
C 0.431310 -0.354435 0.016817
C 1.688441 0.360912 -0.365911
C 2.628080 0.752963 0.608146
C 3.780189 1.458800 0.251312
C 4.018850 1.788432 -1.087006
C 3.095256 1.408572 -2.065764
C 1.941114 0.705040 -1.708253
H 2.403791 -3.935100 2.100499
H 2.990935 -1.592024 -0.169280
H -0.829166 -3.078889 1.624347
H -2.964486 -1.981600 1.027325
H -4.150042 -0.283764 0.021616
H -2.745163 1.132155 -2.324785
H -3.443542 -0.504305 -2.366939
H -4.499090 0.913273 -2.126894
H -3.406095 1.647923 1.424897
H -2.726601 2.447122 -0.012305
H -4.480925 2.174934 0.102541
H -0.762852 1.203409 -0.859821
H 2.441499 0.511206 1.657514
H 4.492551 1.758276 1.024795
H 4.920751 2.339899 -1.365451
H 3.274357 1.658166 -3.115194
H 1.225801 0.404837 -2.478597