23
Extracted from mol_1163.out
O -2.108924 -2.487423 -1.174436
B -1.146192 -1.806674 -0.504435
O 0.035009 -2.493427 -0.310415
C -1.242529 -0.307506 0.009423
C -2.466789 0.341873 0.280316
Br -4.167789 -0.582367 0.158664
C -2.578180 1.672286 0.678158
C -1.408517 2.421768 0.810414
C -0.164499 1.852089 0.568212
C -0.065895 0.499589 0.183881
N 1.190796 -0.080441 -0.039982
C 2.444591 0.501827 -0.027619
O 2.665951 1.681499 0.174334
C 3.564557 -0.496970 -0.290877
H -2.957280 -2.022607 -1.237946
H -0.015821 -3.385881 -0.681242
H -3.555888 2.111824 0.877905
H -1.470772 3.470265 1.114152
H 0.749739 2.431027 0.669948
H 1.164473 -1.085681 -0.202832
H 3.622903 -1.236626 0.525030
H 4.513735 0.049376 -0.349874
H 3.397318 -1.047821 -1.230781