30
Extracted from mol_404.out
O -4.585027 1.065219 -0.890203
B -3.488864 0.256101 -0.795884
O -3.624935 -1.082398 -1.004210
C -2.096980 0.931334 -0.466877
C -1.975936 2.333160 -0.484132
C -0.752501 2.954508 -0.234961
C 0.379683 2.178454 0.019554
C 0.319947 0.772867 0.041373
C 1.560773 -0.018297 0.283480
C 2.448050 0.347879 1.313690
C 3.635893 -0.357240 1.526286
C 3.963337 -1.443766 0.710189
C 3.091909 -1.818697 -0.318051
C 1.903288 -1.116729 -0.529136
C -0.939393 0.176087 -0.191323
O -1.055816 -1.210859 -0.167717
C -1.098003 -1.802074 1.130752
H -5.376851 0.560142 -1.118859
H -2.752267 -1.507054 -0.916496
H -2.864407 2.931725 -0.699720
H -0.671562 4.044525 -0.254499
H 1.345878 2.664387 0.178355
H 2.195121 1.188031 1.965830
H 4.306174 -0.057333 2.336516
H 4.892494 -1.996138 0.874024
H 3.342149 -2.663022 -0.966407
H 1.231074 -1.416541 -1.334629
H -1.975623 -1.443613 1.697041
H -0.180933 -1.581815 1.700621
H -1.176674 -2.888840 0.985536