44
Extracted from mol_550.out
O -1.255686 5.956506 2.639479
B -1.533926 5.132027 1.587874
O -2.578527 5.514832 0.794535
C -0.704787 3.819429 1.305418
C 0.652420 3.724114 1.634422
C 1.394235 2.563698 1.367771
C 0.783683 1.458736 0.770656
O 1.398145 0.290709 0.474604
C 2.789660 0.152416 0.684332
C 3.249963 -1.187515 0.155842
C 2.541095 -1.851288 -0.855602
C 3.010138 -3.067062 -1.363017
C 4.191433 -3.630243 -0.870784
C 4.901238 -2.973287 0.139515
C 4.429848 -1.761534 0.651722
C -0.598552 1.525083 0.433585
O -1.109125 0.405036 -0.133127
C -2.490021 0.329652 -0.422078
C -2.829305 -1.057828 -0.918588
C -2.034246 -2.163520 -0.584778
C -2.392770 -3.444668 -1.015803
C -3.548274 -3.636731 -1.779234
C -4.343787 -2.536943 -2.116583
C -3.982887 -1.255485 -1.691820
C -1.311084 2.694478 0.696607
H -0.585642 5.591591 3.228499
H -2.658546 4.973893 0.001081
H 1.167673 4.574619 2.092349
H 2.451859 2.529882 1.631403
H 3.328152 0.969481 0.162855
H 3.031126 0.241678 1.760863
H 1.614982 -1.412787 -1.231919
H 2.446403 -3.577412 -2.148880
H 4.555894 -4.580869 -1.269365
H 5.821981 -3.409418 0.536472
H 4.985712 -1.258852 1.449780
H -2.770571 1.085122 -1.181347
H -3.076366 0.557250 0.491376
H -1.129010 -2.009028 0.005257
H -1.762734 -4.298775 -0.752389
H -3.826434 -4.639482 -2.114650
H -5.245481 -2.675519 -2.719322
H -4.605640 -0.398660 -1.968651
H -2.372239 2.736673 0.441640