22
Extracted from mol_1308.out
O -4.140918 -0.477776 0.014642
B -2.864145 -0.945789 -0.050788
O -2.674280 -2.293811 -0.174263
C -1.687771 0.103893 0.019727
C -0.336140 -0.278586 -0.023597
C 0.693609 0.671887 0.039725
C 2.140768 0.297272 -0.005870
O 3.053221 1.088579 0.046596
O 2.326504 -1.033457 -0.114556
C 3.682256 -1.477379 -0.167633
C 0.381200 2.034789 0.149165
C -0.956716 2.411084 0.192154
F -1.262658 3.712257 0.297057
C -1.986034 1.474948 0.129647
H -4.794247 -1.188273 -0.037345
H -1.751407 -2.568572 -0.219877
H -0.049279 -1.329509 -0.107165
H 4.225127 -1.187541 0.745164
H 4.203110 -1.040776 -1.033667
H 3.643622 -2.570330 -0.257143
H 1.176643 2.780102 0.199111
H -3.022466 1.816986 0.166989