27
Extracted from mol_396.out
O 4.662689 0.613545 -1.190474
B 3.313313 0.807223 -1.317156
O 2.864737 1.470464 -2.420316
C 2.256930 0.300731 -0.262772
C 2.649892 -0.187848 0.992682
C 1.698769 -0.645279 1.913967
O 2.145810 -1.093751 3.117512
C 0.340125 -0.617446 1.579477
C -0.086062 -0.130774 0.329492
C -1.533902 -0.104983 -0.017564
C -2.399417 -1.139000 0.388259
C -3.757207 -1.112675 0.061317
C -4.282740 -0.049922 -0.679929
C -3.436431 0.984538 -1.091522
C -2.078834 0.957008 -0.764858
C 0.885487 0.326271 -0.576773
H 4.913675 0.093198 -0.418537
H 3.589162 1.719829 -3.009769
H 3.699067 -0.216459 1.303830
H 1.394283 -1.367862 3.659716
H -0.398758 -0.951686 2.314817
H -1.998117 -1.989656 0.944983
H -4.406741 -1.932575 0.380206
H -5.345304 -0.028542 -0.936331
H -3.836968 1.824382 -1.665951
H -1.433374 1.782376 -1.074450
H 0.579914 0.688894 -1.559857