31
Extracted from mol_310.out
O -2.318789 2.716350 0.615812
B -1.236559 2.076004 1.167491
O -0.808312 2.507821 2.385039
C -0.431876 0.916132 0.456843
C 0.970329 1.033776 0.455006
C 1.793931 0.103794 -0.190714
C 3.270230 0.318246 -0.154764
O 3.818543 1.253289 0.382677
O 3.949249 -0.656403 -0.796943
C 5.369143 -0.529596 -0.809648
C 1.202830 -0.991028 -0.840117
C -0.181908 -1.136998 -0.827016
C -1.018424 -0.202364 -0.189444
C -2.527828 -0.444370 -0.175555
C -3.134404 -0.412955 -1.590669
C -2.889233 -1.750934 0.554998
H -2.529336 2.423088 -0.278057
H -1.326691 3.259935 2.704009
H 1.449203 1.871997 0.966249
H 5.773037 -0.530416 0.214781
H 5.749682 -1.393931 -1.368828
H 5.676150 0.407386 -1.299924
H 1.833023 -1.725012 -1.344756
H -0.622063 -2.006379 -1.323058
H -2.989471 0.374737 0.397158
H -4.229718 -0.531160 -1.548234
H -2.736122 -1.225401 -2.220342
H -2.915557 0.536110 -2.108589
H -2.494261 -2.634603 0.027421
H -2.481122 -1.760947 1.577830
H -3.983678 -1.866170 0.623097