16
Extracted from mol_1274.out
O -2.570444 -1.349590 1.007419
B -2.103114 -0.437662 0.109630
O -3.028403 0.142371 -0.694116
C -0.548804 -0.089888 0.012468
C 0.421704 -0.890757 0.645994
C 1.783920 -0.595342 0.565018
Br 3.049416 -1.719261 1.443826
C 2.230565 0.516102 -0.157008
C 1.295199 1.325800 -0.803490
C -0.055593 1.004678 -0.709544
F -0.929230 1.810789 -1.361926
H -1.908627 -1.690915 1.617434
H -2.649549 0.803663 -1.286110
H 0.115774 -1.776725 1.208505
H 3.295692 0.746179 -0.217394
H 1.601498 2.200558 -1.380708