25
Extracted from mol_273.out
O 3.330941 1.549797 1.077294
B 3.295241 0.268152 0.614201
O 4.475925 -0.422622 0.552968
C 1.904660 -0.332633 0.185640
C 1.773226 -1.598272 -0.410604
C 0.523258 -2.093628 -0.774420
C -0.624862 -1.326494 -0.545499
Cl -2.150392 -2.052408 -1.043697
C -0.560175 -0.048761 0.047331
C -1.752991 0.862847 0.334835
C -2.474009 1.339853 -0.940001
C -2.729239 0.278860 1.373403
C 0.725542 0.404081 0.393403
H 4.225863 1.820384 1.322613
H 4.390421 -1.333111 0.248672
H 2.651627 -2.222648 -0.609545
H 0.420600 -3.075847 -1.239394
H -1.312113 1.762919 0.796054
H -3.244870 2.084174 -0.680029
H -1.768255 1.816326 -1.639274
H -2.968695 0.511635 -1.467626
H -2.203005 0.006352 2.302277
H -3.498313 1.026610 1.628566
H -3.241841 -0.618165 0.997248
H 0.811455 1.392595 0.853263