22
Extracted from mol_1814.out
O 2.906437 0.949958 1.090102
B 2.290875 0.506773 -0.074736
O 2.987014 0.255227 -1.251373
C 1.008623 -0.438244 0.163109
C 1.023066 -1.780243 0.566139
C -0.174999 -2.491799 0.740217
C -1.404553 -1.881860 0.516555
C -1.448499 -0.527437 0.108333
N -2.609984 0.183791 -0.143257
O -3.676949 -0.502413 0.028015
O -4.797143 0.101537 -0.190118
C -0.226552 0.180050 -0.063512
C -0.031000 1.606336 -0.482787
O 1.150055 1.993599 -0.556075
N -1.067171 2.405831 -0.760151
H 3.695545 1.482378 0.937065
H 3.773235 0.801932 -1.363497
H 1.977814 -2.281043 0.748227
H -0.147550 -3.538375 1.055452
H -2.333591 -2.435984 0.652437
H -2.017056 2.047587 -0.683885
H -0.877617 3.362401 -1.036258