21
Extracted from mol_1851.out
O -2.180614 -2.196893 -0.648507
B -2.449936 -0.883228 -0.409835
O -3.757231 -0.487363 -0.375669
C -1.229249 0.092179 -0.180271
C -1.384121 1.487701 -0.094001
C -0.283810 2.314530 0.113420
C 1.004814 1.766858 0.241352
C 2.117183 2.648926 0.456177
N 3.002633 3.381457 0.627266
C 1.192254 0.359407 0.154965
S 2.843942 -0.259083 0.320031
C 2.640450 -2.054691 0.132555
C 0.063508 -0.446649 -0.056774
H -2.986047 -2.719264 -0.763078
H -3.892605 0.442379 -0.160186
H -2.370584 1.950982 -0.197987
H -0.403425 3.398180 0.178101
H 2.012880 -2.481706 0.928624
H 3.656084 -2.465962 0.221584
H 2.234153 -2.319277 -0.854703
H 0.169719 -1.528485 -0.131760