23
Extracted from mol_1901.out
O 0.642845 2.080971 1.614574
B -0.116866 1.709624 0.528062
O -0.761572 2.705779 -0.132535
C -0.156742 0.177561 0.110130
C 1.028853 -0.530474 -0.232686
B 2.505673 0.064463 -0.212616
O 2.937137 1.091575 0.562188
O 3.410724 -0.544284 -1.038215
C 0.922486 -1.876352 -0.640966
C -0.302355 -2.538356 -0.690200
C -1.467678 -1.851837 -0.351942
C -1.394016 -0.507909 0.028995
C -2.687340 0.211607 0.332467
F -3.027438 1.064181 -0.677721
F -2.607675 0.964194 1.447701
F -3.724642 -0.619621 0.487525
H 0.571560 3.032414 1.785914
H -1.359616 2.406840 -0.829827
H 2.254607 1.455766 1.155380
H 4.287288 -0.146925 -0.944557
H 1.834025 -2.407328 -0.924260
H -0.353876 -3.587012 -0.994425
H -2.435379 -2.354875 -0.382988