22
Extracted from mol_1311.out
O 4.160916 0.030280 0.356014
B 2.865534 0.431049 0.543831
O 2.646476 1.555880 1.280632
C 1.614787 -0.327543 -0.039015
C 1.720257 -1.508844 -0.797951
C 0.595053 -2.158690 -1.300820
C -0.670829 -1.629673 -1.049253
F -1.719105 -2.279471 -1.545945
C -0.836219 -0.451001 -0.296146
C -2.197264 0.110731 -0.030097
O -3.241874 -0.357553 -0.413003
O -2.130343 1.238436 0.710500
C -3.376550 1.857534 1.022370
C 0.323548 0.174278 0.194035
H 4.265752 -0.766607 -0.175394
H 3.470692 1.951460 1.594231
H 2.700673 -1.949339 -1.011831
H 0.670093 -3.075363 -1.889321
H -3.135853 2.739600 1.629139
H -3.906012 2.157742 0.104726
H -4.026217 1.170368 1.586247
H 0.206481 1.086726 0.778766