23
Extracted from mol_1151.out
O -0.424971 -2.400394 0.711421
B -1.496514 -1.526701 0.651402
O -2.769455 -1.918434 0.959788
C -1.264564 -0.041221 0.219837
C -2.395743 0.799199 0.179993
C -2.329254 2.140288 -0.186417
C -1.079151 2.664532 -0.527871
Cl -0.956809 4.346695 -0.994296
C 0.076732 1.887242 -0.508607
C -0.006293 0.531386 -0.135758
N 1.138828 -0.279004 -0.106370
C 2.449567 0.040317 -0.401361
O 2.835561 1.141146 -0.748073
C 3.399670 -1.143305 -0.261354
H -0.624194 -3.304509 0.983061
H -2.883018 -2.839015 1.222062
H -3.364587 0.372760 0.449881
H -3.218830 2.771298 -0.209906
H 1.040689 2.311086 -0.776405
H 0.960471 -1.240484 0.173614
H 3.167925 -1.916883 -1.012537
H 4.425629 -0.788230 -0.417141
H 3.318312 -1.607768 0.735037