23
Extracted from mol_1842.out
O -3.329517 -1.993200 -0.866991
B -3.034851 -0.902845 -0.107129
O -4.055378 -0.284915 0.560718
C -1.531495 -0.426956 -0.041872
C -1.161467 0.804112 0.529883
C 0.179017 1.191969 0.574501
C 0.547397 2.545488 1.131475
F 1.817949 2.583781 1.572881
F -0.247208 2.895505 2.160716
F 0.426660 3.514108 0.202163
C 1.180395 0.360222 0.058878
C 0.835887 -0.871438 -0.517535
S 2.002049 -2.021141 -1.202606
C 3.603158 -1.192849 -0.980558
C -0.519972 -1.246032 -0.564944
H -4.269175 -2.217892 -0.833552
H -3.783381 0.447422 1.125547
H -1.914283 1.480684 0.944117
H 2.217970 0.685824 0.121800
H 4.348850 -1.881069 -1.403473
H 3.835876 -1.029289 0.082493
H 3.649974 -0.239896 -1.528928
H -0.798456 -2.201592 -1.017583