25
Extracted from mol_1240.out
O -0.859960 -1.403352 2.333452
B -1.759433 -1.143152 1.330880
O -2.934876 -1.834788 1.359002
C -1.416343 -0.065278 0.232724
C -2.477141 0.544088 -0.459904
C -2.270421 1.481886 -1.472441
C -0.967524 1.865484 -1.776449
C 0.105491 1.320382 -1.068651
N 1.418334 1.954459 -1.320105
O 2.147279 2.133271 -0.359036
O 1.646806 2.331708 -2.455221
C -0.082319 0.323566 -0.084984
N 0.982416 -0.312543 0.556603
C 2.149578 -0.748049 -0.059053
O 2.379011 -0.571881 -1.236570
C 3.118706 -1.435453 0.882645
H -1.181137 -2.075499 2.951195
H -3.504356 -1.691840 0.594101
H -3.507298 0.276976 -0.201259
H -3.114196 1.923292 -2.007123
H -0.751867 2.608842 -2.544729
H 0.754682 -0.711251 1.464268
H 2.609664 -2.033137 1.654944
H 3.792105 -2.073356 0.296037
H 3.722798 -0.664377 1.389671