20
Extracted from mol_1883.out
O 2.698512 -1.654514 1.227202
B 2.623808 -0.679877 0.283194
O 3.771631 -0.281469 -0.339316
C 1.195192 -0.078017 -0.030712
C 1.006020 1.056977 -0.835425
C -0.266999 1.563227 -1.095020
C -1.401325 0.937340 -0.550436
C -2.694783 1.490509 -0.847791
N -3.714808 1.974407 -1.116715
C -1.233414 -0.206097 0.266237
C -2.438512 -0.903243 0.867912
F -2.079031 -1.954941 1.619684
F -3.266947 -1.355518 -0.087873
F -3.144447 -0.070793 1.650186
C 0.049804 -0.690327 0.514268
H 3.599601 -1.981337 1.354159
H 3.657687 0.375746 -1.034902
H 1.863912 1.578600 -1.272766
H -0.398116 2.448266 -1.720569
H 0.172214 -1.568940 1.148683