26
Extracted from mol_1094.out
O -3.278468 3.277552 -0.297649
B -1.974853 3.054217 0.053958
O -1.207795 4.130425 0.385311
C -1.312706 1.623862 0.088090
C -2.077793 0.450950 -0.003909
C -1.477628 -0.819367 0.022087
S -2.568567 -2.218274 -0.098120
C -1.447406 -3.646146 -0.039250
C -0.082617 -0.929921 0.139954
C 0.680552 0.241983 0.235179
O 2.064462 0.277741 0.356568
C 2.905803 -0.787127 0.418228
O 2.569639 -1.942413 0.373707
C 4.327910 -0.298710 0.548741
C 0.081225 1.503141 0.213453
H -3.754248 2.487070 -0.577549
H -1.700305 4.959402 0.316388
H -3.169161 0.505574 -0.085079
H -2.096136 -4.530555 -0.114665
H -0.892526 -3.691043 0.909635
H -0.743725 -3.646730 -0.884846
H 0.417565 -1.891724 0.162186
H 5.004717 -1.158606 0.620200
H 4.427802 0.339359 1.440473
H 4.593132 0.318969 -0.323719
H 0.711129 2.390368 0.294867