25
Extracted from mol_269.out
O 0.539706 2.781117 -0.617265
B 0.660498 1.854943 0.373125
O 0.586396 2.303940 1.667738
C 0.963816 0.346222 0.002028
C 2.327894 0.024266 -0.140691
C 2.769987 -1.263771 -0.450309
C 1.815270 -2.264203 -0.625369
Cl 2.322537 -3.895008 -1.014824
C 0.454284 -1.980126 -0.495688
C 0.007492 -0.685856 -0.183249
C -1.503212 -0.464791 -0.075212
C -1.946254 -0.039501 1.336720
C -2.036682 0.495724 -1.153684
H 0.405480 3.672337 -0.263687
H 0.690308 1.601549 2.320880
H 3.081015 0.808701 -0.011223
H 3.832630 -1.488736 -0.557208
H -0.268989 -2.785120 -0.644445
H -1.967319 -1.447366 -0.266726
H -1.598817 -0.758382 2.096651
H -1.557725 0.954453 1.606412
H -3.045813 0.009915 1.397420
H -3.135603 0.565791 -1.096081
H -1.625838 1.510650 -1.042397
H -1.771060 0.143257 -2.162917