39
Extracted from mol_209.out
O -5.065763 -1.733013 0.110683
B -3.984204 -2.113971 -0.634929
O -4.224195 -3.126298 -1.521598
C -2.537129 -1.494340 -0.471273
C -1.456415 -2.393682 -0.390039
C -0.133569 -1.984048 -0.204376
C 0.138677 -0.611405 -0.108020
O 1.373640 -0.077776 0.070657
C 2.502291 -0.941495 0.169961
C 3.737981 -0.099928 0.364571
C 4.492565 0.326722 -0.737965
C 5.619873 1.133753 -0.560573
C 6.003331 1.526609 0.725570
C 5.255794 1.109385 1.831802
C 4.129986 0.301895 1.650294
C -0.919225 0.307375 -0.204357
C -2.243070 -0.105049 -0.380537
C -3.337985 0.958372 -0.492515
C -3.538247 1.712829 0.835243
C -3.083806 1.938375 -1.651525
H -4.841874 -1.083137 0.785550
H -3.460237 -3.308995 -2.080498
H -1.652477 -3.469418 -0.456587
H 0.658290 -2.730341 -0.135511
H 2.369488 -1.633735 1.021799
H 2.591175 -1.550306 -0.748416
H 4.193589 0.022710 -1.745546
H 6.201140 1.456376 -1.428545
H 6.886217 2.156029 0.866322
H 5.552101 1.412814 2.839552
H 3.546281 -0.021964 2.517113
H -0.660255 1.366831 -0.140373
H -4.280608 0.436959 -0.718733
H -3.760691 1.022942 1.666850
H -2.634196 2.277411 1.117028
H -4.371949 2.430284 0.758112
H -3.928849 2.638583 -1.757678
H -2.963449 1.403954 -2.607168
H -2.174225 2.538694 -1.486148