19
Extracted from mol_785.out
O 3.038325 -1.215211 -0.099767
B 2.421770 -0.018935 0.197565
O 3.228986 1.014258 0.567374
C 0.860599 0.043035 0.084265
C 0.159429 1.233440 0.369127
C -1.225386 1.323336 0.279121
C -1.958014 0.187348 -0.109869
C -3.441063 0.264203 -0.211744
O -4.160249 -0.651541 -0.535778
C -1.301485 -1.010203 -0.400638
C 0.097409 -1.094748 -0.308396
O 0.656255 -2.279734 -0.604639
H 4.000748 -1.187150 -0.009822
H 2.769080 1.837019 0.769796
H 0.716337 2.127211 0.673389
H -1.743077 2.259446 0.505761
H -3.868219 1.270510 0.042578
H -1.877387 -1.887228 -0.702010
H 1.625943 -2.215057 -0.506312