22
Extracted from mol_157.out
O -3.443006 0.473473 0.545089
B -2.453274 1.008272 -0.224565
O -2.851668 1.961935 -1.113913
C -0.925016 0.592886 -0.099937
C 0.039018 1.619052 -0.120267
C 1.406324 1.359277 -0.010490
C 1.835319 0.036112 0.107259
C 3.302238 -0.305635 0.206611
F 4.081683 0.788210 0.214209
F 3.572569 -0.999674 1.328948
F 3.698990 -1.073977 -0.826574
C 0.897726 -1.003299 0.120738
C -0.476636 -0.747943 0.028079
C -1.439591 -1.916237 0.072720
H -3.122412 -0.143279 1.211544
H -2.140583 2.256166 -1.694491
H -0.287930 2.659791 -0.213532
H 2.132280 2.173783 -0.020188
H 1.246784 -2.036439 0.202325
H -2.342876 -1.739064 -0.528556
H -0.962025 -2.837776 -0.292940
H -1.767915 -2.125636 1.107933