18
Extracted from mol_1488.out
O 3.247473 -0.416135 0.594928
B 2.284518 -0.403512 -0.358488
O 2.567941 -0.932800 -1.586929
C 0.832264 0.128757 -0.008877
C -0.256185 -0.724291 -0.249747
C -1.576829 -0.362602 0.061483
C -2.691697 -1.304676 -0.205416
O -2.561684 -2.401728 -0.698933
C -1.827669 0.898392 0.619224
C -0.775215 1.782954 0.853864
C 0.532258 1.393330 0.540640
Br 1.920095 2.670552 0.842343
H 4.078452 -0.789222 0.268569
H 1.842860 -0.866528 -2.219789
H -0.097245 -1.717669 -0.680857
H -3.704221 -0.920576 0.088563
H -2.852706 1.193232 0.865266
H -0.962409 2.772526 1.274156