25
Extracted from mol_133.out
O 0.992873 3.112284 -0.069502
B -0.166078 2.469635 0.174226
O -1.266484 3.225852 0.496212
C -0.428260 0.886545 0.117227
C 0.495365 -0.184843 -0.083265
C 1.960544 0.014989 -0.296166
O 2.544357 1.079380 -0.435586
O 2.648741 -1.136045 -0.336881
C 4.056533 -1.037582 -0.554590
C 0.029253 -1.514782 -0.085542
C -1.317013 -1.815953 0.093785
C -2.251057 -0.790680 0.288504
C -3.719996 -1.085929 0.458231
C -1.777730 0.529858 0.300456
H 1.719232 2.479428 -0.271120
H -1.033301 4.163560 0.503551
H 4.535551 -0.452728 0.245115
H 4.434743 -2.067439 -0.554131
H 4.270766 -0.550725 -1.518134
H 0.744325 -2.323415 -0.232335
H -1.642493 -2.860385 0.084804
H -4.187906 -0.398232 1.179854
H -4.256933 -0.962665 -0.499249
H -3.891604 -2.118083 0.800144
H -2.493426 1.337953 0.464650