16
Extracted from mol_1287.out
O -2.947499 0.853463 0.211564
B -2.079650 -0.199647 0.125011
O -2.598680 -1.454028 0.021931
C -0.509223 -0.050096 0.140750
C 0.139392 1.197511 0.197436
C 1.532184 1.301598 0.213630
C 2.316250 0.143754 0.173548
I 4.428639 0.257170 0.200548
C 1.684223 -1.103597 0.115520
F 2.414057 -2.222029 0.076978
C 0.295694 -1.201977 0.098546
H -2.528436 1.717229 0.295628
H -3.565295 -1.451096 0.024953
H -0.439687 2.126792 0.228449
H 2.013016 2.280836 0.257498
H -0.154986 -2.195884 0.052523