22
Extracted from mol_1405.out
O 4.369022 0.612723 -0.636425
B 3.556118 -0.332125 -0.072464
O 4.122398 -1.418840 0.506588
C 1.984565 -0.137378 -0.005865
C 1.447815 0.945310 0.719636
C 0.073556 1.155192 0.823868
C -0.814682 0.279696 0.183227
C -2.281857 0.539087 0.316344
O -2.756660 1.460240 0.939853
O -3.028352 -0.370104 -0.338168
C -4.443293 -0.199093 -0.261596
C -0.313222 -0.798039 -0.560941
C 1.066663 -0.989160 -0.644600
Cl 1.654629 -2.329025 -1.617431
H 3.888773 1.343287 -1.043961
H 5.085701 -1.419826 0.416066
H 2.129340 1.635697 1.226681
H -0.333634 1.990804 1.396197
H -4.786191 -0.242028 0.783627
H -4.882564 -1.020550 -0.841300
H -4.743491 0.771713 -0.685312
H -0.994635 -1.477581 -1.071745