17
Extracted from mol_781.out
O 3.171184 0.319615 0.383852
B 2.055120 -0.444753 0.267010
O 2.214639 -1.802376 0.314918
C 0.560946 0.069689 0.074238
C 0.080519 1.391648 0.010541
I 1.351798 3.123231 0.174653
C -1.278324 1.680758 -0.165493
C -2.206625 0.649411 -0.285065
C -1.770903 -0.681309 -0.227281
O -2.700584 -1.661399 -0.346802
C -0.409999 -0.948290 -0.050360
H 3.015559 1.276692 0.346436
H 3.144335 -2.039045 0.431820
H -1.621402 2.716015 -0.210576
H -3.269149 0.861010 -0.423202
H -2.267556 -2.524029 -0.290258
H -0.069556 -1.986866 -0.004429