19
Extracted from mol_852.out
O 2.730610 0.317895 1.251284
B 2.125962 -0.152573 0.118657
O 2.771112 -0.767685 -0.918145
C 0.539899 -0.227104 0.126231
C -0.163323 -1.315952 0.664614
C -1.559404 -1.366853 0.662818
C -2.311042 -0.314392 0.113980
O -3.665631 -0.312229 0.085921
C -1.645709 0.788506 -0.432262
C -0.252784 0.795097 -0.407675
N 0.442293 1.963950 -0.985477
O 1.669913 1.952520 -0.949652
O -0.220788 2.866354 -1.460756
H 3.694061 0.361377 1.218898
H 3.733692 -0.701253 -0.905002
H 0.390394 -2.152396 1.099825
H -2.075143 -2.232449 1.091731
H -4.003519 -1.122456 0.490201
H -2.200594 1.619642 -0.865190