25
Extracted from mol_291.out
O 2.157389 2.371498 0.750058
B 1.516869 1.631137 -0.203353
O 1.079282 2.273508 -1.321483
C 1.226802 0.075516 -0.061871
C 2.252511 -0.886534 -0.078965
I 4.307338 -0.285322 -0.287902
C 2.013571 -2.258654 0.019641
C 0.693847 -2.695723 0.148411
C -0.350417 -1.771548 0.179133
C -0.107444 -0.392727 0.078043
C -1.282228 0.586909 0.094847
C -1.999118 0.611353 -1.267941
C -2.268989 0.322851 1.244666
H 2.506907 1.846712 1.480723
H 1.323068 3.210281 -1.313684
H 2.836845 -2.974470 -0.004522
H 0.484215 -3.766133 0.227109
H -1.375827 -2.133890 0.283391
H -0.869403 1.596334 0.253321
H -2.824678 1.342683 -1.260318
H -1.301346 0.890821 -2.071248
H -2.426102 -0.376410 -1.510405
H -1.757253 0.295196 2.220108
H -2.805189 -0.632110 1.119269
H -3.030649 1.118724 1.282972