21
Extracted from mol_1847.out
O -1.294112 2.898997 -0.743178
B -1.285607 1.820446 0.092927
O -2.319096 1.646713 0.954749
C -0.027248 0.850762 -0.017876
C 1.064853 1.299453 -0.788933
C 2.237112 0.559732 -0.925091
C 2.350997 -0.684354 -0.280195
C 3.552550 -1.463700 -0.401693
N 4.522925 -2.093901 -0.500449
C 1.274154 -1.166214 0.485019
C 0.101604 -0.412753 0.609884
S -1.197121 -1.131222 1.645628
C -2.346896 -1.774071 0.370436
H -2.076454 3.449922 -0.604920
H -2.195681 0.858388 1.520519
H 0.981924 2.266914 -1.288687
H 3.067795 0.937792 -1.524730
H 1.351916 -2.133317 0.984898
H -1.842954 -2.514103 -0.266897
H -2.752834 -0.953691 -0.237726
H -3.167826 -2.261792 0.916316