17
Extracted from mol_1538.out
O 2.472964 0.238300 -1.955937
B 2.063484 -0.214920 -0.747502
O 2.885935 -1.043574 -0.037214
C 0.606213 0.144363 -0.231133
C -0.280594 -0.912823 0.033340
C -1.601450 -0.688302 0.462497
C -2.478139 -1.798058 0.713802
N -3.182691 -2.697993 0.920291
C -2.050829 0.631430 0.647763
C -1.185861 1.697226 0.410760
C 0.121938 1.448993 -0.022093
Br 1.265143 2.955752 -0.282914
H 3.366659 -0.059870 -2.176882
H 2.541488 -1.297646 0.827289
H 0.053150 -1.944480 -0.108715
H -3.073483 0.818299 0.981845
H -1.523929 2.723304 0.564804