18
Extracted from mol_1360.out
O 3.023422 -0.261200 0.384973
B 2.016699 -0.553615 -0.459242
O 2.349362 -1.208542 -1.611282
C 0.457226 -0.289089 -0.160979
C -0.411147 -1.334736 -0.549369
C -1.795226 -1.288991 -0.381049
C -2.362607 -0.142953 0.171048
F -3.685375 -0.071362 0.330280
C -1.573311 0.932064 0.559332
C -0.187300 0.827475 0.409676
N 0.566706 2.007450 0.902245
O 1.678322 1.827007 1.387606
O 0.023663 3.092295 0.830678
H 2.722319 0.320628 1.101285
H 1.616488 -1.331043 -2.223739
H 0.021552 -2.236376 -0.991533
H -2.437217 -2.122433 -0.673627
H -2.023575 1.833421 0.973696