21
Extracted from mol_810.out
O -3.406709 -1.407989 0.468271
B -2.075698 -1.553279 0.713306
O -1.652099 -2.704643 1.323618
C -1.095865 -0.393852 0.290046
C 0.285318 -0.618185 0.127085
C 1.150418 0.424087 -0.231969
C 2.637030 0.250684 -0.420896
O 3.406074 1.196365 -0.378288
N 3.072213 -1.032611 -0.629516
C 0.637275 1.716712 -0.403245
C -0.732742 1.958054 -0.256627
O -1.278167 3.188835 -0.426140
C -1.592701 0.900865 0.078924
H -3.919471 -2.159893 0.794851
H -0.717367 -2.699121 1.560262
H 0.694125 -1.619264 0.296198
H 2.438018 -1.754558 -0.945323
H 4.056408 -1.144153 -0.846470
H 1.336260 2.520654 -0.652280
H -0.582320 3.823425 -0.644604
H -2.659998 1.107867 0.182796