36
Extracted from mol_572.out
O -0.264471 -3.008344 -0.787031
B -1.408215 -3.025298 -0.044262
O -1.982985 -4.219027 0.279430
C -2.114114 -1.699633 0.446251
C -3.421457 -1.733797 0.969486
C -4.083224 -0.568892 1.360597
C -3.452659 0.671693 1.222803
C -2.159727 0.730311 0.708802
O -1.505414 1.950944 0.598353
C -1.515074 2.577259 -0.627546
O -2.131652 2.167709 -1.568426
C -0.648374 3.809005 -0.589404
C -1.489570 -0.443390 0.330678
O -0.209984 -0.346494 -0.186865
C 0.830563 -0.157685 0.800456
C 2.170097 -0.081665 0.115328
C 2.753462 -1.233571 -0.438784
C 3.989285 -1.162176 -1.085462
C 4.663111 0.060683 -1.181351
C 4.094560 1.211350 -0.628447
C 2.853914 1.138308 0.013107
H -0.000336 -2.086873 -0.961603
H -1.494460 -4.963364 -0.097210
H -3.918462 -2.702173 1.064744
H -5.097369 -0.619300 1.764791
H -3.951134 1.601361 1.506465
H -0.825022 4.383372 0.331605
H 0.410155 3.501709 -0.594135
H -0.847293 4.423568 -1.475827
H 0.799397 -1.007076 1.506334
H 0.627886 0.766666 1.364275
H 2.234185 -2.193201 -0.364037
H 4.431395 -2.066208 -1.512682
H 5.632380 0.114828 -1.684258
H 4.617395 2.169116 -0.696608
H 2.413213 2.040283 0.448589