26
Extracted from mol_458.out
O 5.164306 -0.700987 -0.226815
B 4.234483 0.194379 0.199221
O 4.679711 1.343826 0.788859
C 2.658868 0.039342 0.082497
C 1.874591 1.092521 0.606347
C 0.483249 1.090989 0.572757
C -0.221633 0.015722 0.001654
C -1.707936 -0.005207 -0.044690
C -2.470316 0.520749 1.016191
C -3.866084 0.501956 0.975860
C -4.532078 -0.041157 -0.127309
C -3.789216 -0.566001 -1.189441
C -2.393408 -0.549066 -1.148076
C 0.530568 -1.047781 -0.527536
C 1.924767 -1.020081 -0.480632
Br 2.792490 -2.572911 -1.247046
H 4.785031 -1.494288 -0.634807
H 5.645141 1.367574 0.825550
H 2.398987 1.943027 1.046982
H -0.064616 1.947317 0.972432
H -1.963724 0.926692 1.895121
H -4.436775 0.907680 1.815609
H -5.624689 -0.055097 -0.159230
H -4.299299 -0.985201 -2.060962
H -1.826741 -0.940293 -1.996606
H 0.024325 -1.913703 -0.955927