29
Extracted from mol_318.out
O 3.380866 -1.134727 0.654758
B 2.491880 -0.518856 -0.189844
O 3.000370 0.360296 -1.098438
C 0.961776 -0.922501 -0.209409
C 0.745366 -2.299078 -0.426045
C -0.535528 -2.841378 -0.515719
C -1.630961 -1.995599 -0.369053
C -1.454791 -0.619286 -0.143276
C -2.706814 0.226864 -0.052851
O -2.863409 1.268535 -0.668052
N -3.694102 -0.294932 0.741674
C -0.154339 -0.056969 -0.057873
C 0.013020 1.440507 0.220054
C 1.081950 1.763604 1.278748
C 0.237556 2.236336 -1.081216
H 2.955011 -1.729528 1.283552
H 3.957775 0.462690 -1.001856
H 1.608684 -2.962885 -0.543917
H -0.678450 -3.908829 -0.703250
H -2.644166 -2.397495 -0.450303
H -3.512106 -1.046609 1.393236
H -4.543832 0.248285 0.847816
H -0.943009 1.793807 0.630006
H 1.002305 2.822641 1.573440
H 0.956909 1.153554 2.188528
H 2.105402 1.620642 0.901609
H 1.172657 1.935435 -1.575974
H 0.295578 3.315191 -0.857616
H -0.605598 2.080289 -1.768733