23
Extracted from mol_1159.out
O -4.396664 1.254215 0.979950
B -3.787346 0.288623 0.233325
O -4.616192 -0.619149 -0.356803
C -2.217121 0.223886 0.059384
C -1.537763 -0.995272 -0.123489
C -0.154376 -1.068445 -0.275653
C 0.626925 0.104182 -0.262851
N 2.015654 0.111917 -0.416824
C 2.877760 -0.954999 -0.610860
O 2.519606 -2.114528 -0.669741
C 4.332974 -0.534520 -0.752496
C -0.050239 1.333193 -0.083188
Cl 0.871301 2.835348 -0.065676
C -1.431622 1.390389 0.078041
H -3.775865 1.804096 1.470535
H -4.156260 -1.218026 -0.955693
H -2.101497 -1.933995 -0.131282
H 0.351537 -2.022536 -0.405913
H 2.432279 1.037409 -0.385615
H 4.666820 0.051304 0.119653
H 4.949681 -1.436853 -0.842485
H 4.472377 0.089329 -1.651115
H -1.891969 2.374432 0.201728