17
Extracted from mol_763.out
O -2.749662 -0.290658 1.803221
B -2.287136 0.262965 0.645131
O -3.211093 0.932260 -0.102851
C -0.777303 0.138510 0.195354
C -0.146262 1.138737 -0.573521
C 1.184209 1.038459 -0.972557
C 1.946469 -0.087317 -0.624301
O 3.227510 -0.164562 -1.026838
C 1.324362 -1.094475 0.139778
Cl 2.283589 -2.507554 0.565761
C -0.003556 -0.983622 0.544859
H -2.050244 -0.650821 2.359474
H -2.872738 1.211262 -0.960876
H -0.705055 2.036575 -0.857198
H 1.667100 1.823452 -1.558898
H 3.603875 -1.000431 -0.704100
H -0.434064 -1.802781 1.127561