22
Extracted from mol_1497.out
O -4.372150 0.147028 1.086115
B -3.654794 -0.001781 -0.064075
O -4.374668 -0.202338 -1.194257
C -2.058227 -0.004315 -0.008421
C -1.445785 -0.590436 1.122142
C -0.063460 -0.665931 1.273866
C 0.773337 -0.139653 0.280836
C 2.254558 -0.230890 0.477924
O 2.779806 -0.728418 1.446402
O 2.943857 0.303366 -0.545872
C 4.367784 0.258346 -0.442539
C 0.207514 0.448896 -0.858864
C -1.181093 0.499493 -0.987251
Br -1.857992 1.319230 -2.593576
H -3.831614 0.360276 1.854566
H -3.834683 -0.240577 -1.994246
H -2.082123 -1.017242 1.903666
H 0.388892 -1.128417 2.153213
H 4.755373 0.729492 -1.354303
H 4.720449 -0.781765 -0.368800
H 4.711831 0.806297 0.448019
H 0.853193 0.859340 -1.634543