29
Extracted from mol_518.out
O -4.818981 0.368611 0.539099
B -3.772570 -0.179509 1.215922
O -4.027554 -0.763176 2.421802
C -2.250755 -0.137716 0.763259
C -1.291702 -0.017484 1.785765
C 0.075161 0.068542 1.521252
C 0.560172 0.023822 0.203460
C 2.014671 0.114512 -0.093872
C 2.856951 0.945022 0.670377
C 4.222868 1.032788 0.393567
C 4.778607 0.290504 -0.653127
C 3.955666 -0.539361 -1.420915
C 2.589398 -0.625599 -1.145130
C -0.383488 -0.116716 -0.829652
C -1.752649 -0.191590 -0.560394
C -2.695112 -0.349753 -1.730816
F -2.062746 -0.532211 -2.896074
F -3.542276 -1.379751 -1.568093
F -3.477888 0.762120 -1.895788
H -4.589423 0.780604 -0.303649
H -4.967379 -0.713723 2.645096
H -1.635294 -0.002496 2.822636
H 0.778574 0.143209 2.354118
H 2.431673 1.549075 1.475555
H 4.855537 1.691588 0.994547
H 5.847962 0.358512 -0.869645
H 4.381201 -1.130582 -2.236241
H 1.963559 -1.297070 -1.738057
H -0.044184 -0.152175 -1.865002