22
Extracted from mol_1043.out
O -2.461582 2.021461 -1.476105
B -2.814111 0.858860 -0.861096
O -4.090620 0.397309 -1.033350
C -1.726854 0.117276 0.005743
C -2.049799 -0.914557 0.906536
C -1.070650 -1.558646 1.663679
C 0.268270 -1.181871 1.523667
Br 1.611856 -2.064818 2.538392
C 0.616719 -0.150284 0.639337
O 1.933662 0.257928 0.565200
C 2.651240 0.041229 -0.587986
O 2.189219 -0.477769 -1.563844
C 4.060413 0.540504 -0.410824
C -0.376046 0.487428 -0.105331
H -3.183551 2.387171 -2.004873
H -4.260082 -0.465096 -0.637381
H -3.090899 -1.225762 1.044725
H -1.335435 -2.353858 2.362940
H 4.618445 0.406922 -1.345246
H 4.050206 1.601714 -0.118286
H 4.547417 -0.016872 0.404692
H -0.087820 1.291732 -0.784748