20
Extracted from mol_1606.out
O -1.266711 -2.570369 -1.242303
B -0.464783 -1.973980 -0.310513
O 0.432017 -2.738997 0.364606
C -0.666428 -0.413115 -0.094806
C -1.782432 0.186532 -0.712039
C -2.088063 1.541277 -0.565915
C -1.254235 2.340809 0.219204
I -1.693057 4.407007 0.469591
C -0.128856 1.795744 0.842091
C 0.162385 0.432096 0.681091
S 1.628841 -0.168713 1.556376
C 2.847561 -0.244015 0.188684
H -1.095236 -3.520047 -1.298471
H 0.928768 -2.216567 1.025724
H -2.435831 -0.440505 -1.323471
H -2.966915 1.963829 -1.056776
H 0.529009 2.415551 1.453147
H 2.978734 0.747564 -0.266934
H 3.797528 -0.566706 0.639701
H 2.537702 -0.977394 -0.568988