20
Extracted from mol_1887.out
O -3.632866 0.406445 -1.088071
B -2.932532 -0.220149 -0.105630
O -3.664982 -0.868824 0.839284
C -1.343527 -0.198728 -0.061619
C -0.605569 -1.302290 0.400795
C 0.791404 -1.287472 0.433156
C 1.497691 -0.159492 0.013785
C 3.014048 -0.151137 0.058855
F 3.472219 0.829150 0.852196
F 3.498823 -1.311554 0.529486
F 3.536751 0.038984 -1.162210
C 0.783031 0.968351 -0.451056
C 1.443215 2.165952 -0.896412
N 1.926873 3.152185 -1.270751
C -0.621632 0.928658 -0.486453
H -3.087173 0.770268 -1.794191
H -3.143904 -1.211746 1.573778
H -1.126367 -2.206192 0.731800
H 1.342504 -2.159739 0.787001
H -1.148009 1.817332 -0.845252