26
Extracted from mol_66.out
O -3.940435 1.090505 -1.594363
B -3.131863 1.043250 -0.496808
O -3.484711 1.880391 0.525019
C -1.904197 0.042432 -0.426202
C -2.156546 -1.303674 -0.761907
C -1.144898 -2.260624 -0.702196
C 0.147878 -1.899245 -0.324897
C 0.430090 -0.560325 -0.002245
N 1.725612 -0.141511 0.366839
C 2.893309 -0.874711 0.476427
O 2.978644 -2.066793 0.253759
C 4.089064 -0.043010 0.925361
C -0.595833 0.421036 -0.045829
C -0.256115 1.861868 0.279926
H -3.620683 0.527580 -2.309170
H -2.952632 1.745829 1.316930
H -3.166063 -1.606303 -1.057495
H -1.357176 -3.303930 -0.951553
H 0.950294 -2.631724 -0.279839
H 1.813069 0.842513 0.584073
H 3.961246 0.286716 1.970185
H 4.989668 -0.665281 0.857749
H 4.217263 0.855437 0.299683
H -1.131338 2.516984 0.188986
H 0.515291 2.264298 -0.402130
H 0.131064 1.978295 1.309694