40
Extracted from mol_387.out
O 1.771526 -2.089990 1.438030
B 0.418845 -1.941708 1.441853
O -0.336265 -2.785212 2.209078
C -0.344867 -0.841789 0.602508
C 0.315681 0.092392 -0.231250
O 1.683502 -0.002214 -0.292352
C 2.434350 0.911735 -1.093294
C 3.898169 0.578366 -0.959753
C 4.505717 -0.329647 -1.840250
C 5.854023 -0.667269 -1.695032
C 6.609488 -0.101174 -0.663171
C 6.012766 0.802869 0.221682
C 4.664489 1.138957 0.073639
C -0.410698 1.052961 -0.947752
C -1.803265 1.091091 -0.840753
C -2.503895 0.186107 -0.027181
C -3.986743 0.229647 0.082330
C -4.683466 1.453844 0.066439
C -6.076170 1.493395 0.165281
C -6.808756 0.308437 0.285720
C -6.132769 -0.915590 0.306090
C -4.740356 -0.954149 0.204866
C -1.743043 -0.764790 0.678673
H 2.184754 -1.433001 0.853681
H 0.220293 -3.417436 2.682819
H 2.238396 1.944593 -0.754292
H 2.112699 0.830387 -2.146715
H 3.916323 -0.774283 -2.647610
H 6.316546 -1.373743 -2.389333
H 7.664752 -0.363441 -0.549462
H 6.599883 1.248492 1.029025
H 4.199666 1.846039 0.767098
H 0.088093 1.769273 -1.600594
H -2.352280 1.831648 -1.427986
H -4.124511 2.390831 0.001199
H -6.591435 2.458011 0.158176
H -7.898764 0.338782 0.364526
H -6.693930 -1.850123 0.393541
H -4.229459 -1.920073 0.198876
H -2.249293 -1.472219 1.339252