24
Extracted from mol_1067.out
O -4.374134 1.447515 0.269044
B -3.657773 0.336035 -0.085355
O -4.340400 -0.756668 -0.522807
C -2.086190 0.249264 -0.008831
C -1.268734 1.382929 0.169290
C 0.122767 1.303836 0.241366
C 0.735674 0.050321 0.137177
O 2.107333 -0.124118 0.138275
C 2.977494 0.628419 0.889365
O 2.639001 1.509007 1.629130
C 4.388716 0.165203 0.639663
C -0.042403 -1.112422 -0.047490
C 0.572315 -2.463098 -0.167911
O -0.067400 -3.479564 -0.324381
C -1.438230 -0.989178 -0.122518
H -3.845469 2.164846 0.636298
H -5.297077 -0.618110 -0.512451
H -1.718871 2.379419 0.243852
H 0.723006 2.199713 0.383536
H 4.619119 0.220239 -0.435602
H 5.084571 0.791454 1.210603
H 4.496761 -0.888477 0.941771
H 1.685415 -2.491996 -0.103702
H -2.015492 -1.904569 -0.272820