23
Extracted from mol_728.out
O -2.564769 -2.478052 -0.571186
B -1.431871 -1.880650 -0.103998
O -0.489125 -2.644418 0.519817
C -1.291611 -0.316757 -0.288603
C -2.406759 0.447398 -0.689057
C -2.317843 1.831741 -0.827262
C -1.113713 2.490702 -0.558944
C 0.011431 1.764704 -0.154852
O 1.205652 2.335129 0.144333
C -0.094913 0.367385 -0.037636
O 1.031013 -0.339074 0.401298
C 2.131667 -0.414186 -0.431742
O 2.129916 -0.006833 -1.555737
C 3.273748 -1.084265 0.285427
H -2.565370 -3.427842 -0.391484
H 0.247942 -2.093779 0.824600
H -3.347874 -0.067312 -0.892971
H -3.188878 2.412300 -1.141963
H -1.040885 3.578953 -0.657480
H 1.171792 3.279858 -0.054866
H 2.983213 -2.100364 0.596996
H 3.524020 -0.518391 1.195917
H 4.143217 -1.136248 -0.380743