34
Extracted from mol_653.out
O -1.699598 -3.869588 1.425254
B -0.964729 -2.828756 0.933794
O 0.391534 -2.940224 0.888642
C -1.755553 -1.551477 0.439086
C -3.160384 -1.566163 0.417097
C -3.911200 -0.473438 -0.018597
C -3.258993 0.692105 -0.434406
C -4.108130 1.849140 -0.898869
O -5.251554 1.694171 -1.289712
N -3.508733 3.085004 -0.870134
C -1.853996 0.740812 -0.436512
C -1.116632 -0.369216 -0.005963
O 0.256306 -0.382641 -0.000401
C 0.994562 0.789086 -0.322392
C 2.464117 0.538062 -0.081438
C 3.418577 0.979031 -1.008331
C 4.783827 0.792546 -0.768378
C 5.208158 0.151311 0.398417
C 4.261499 -0.300332 1.324678
C 2.898677 -0.104164 1.089641
H -1.133677 -4.607815 1.687718
H 0.788389 -2.142981 0.501524
H -3.668792 -2.472752 0.754335
H -5.001869 -0.500900 -0.045114
H -4.106863 3.874399 -1.089046
H -2.710497 3.259890 -0.273454
H -1.348614 1.628050 -0.816423
H 0.821452 1.074495 -1.375666
H 0.639560 1.624944 0.311552
H 3.092435 1.469933 -1.930259
H 5.516374 1.141016 -1.501202
H 6.274516 -0.001565 0.584497
H 4.586573 -0.807808 2.236809
H 2.163255 -0.464176 1.813546