29
Extracted from mol_1008.out
O 3.617996 -0.133677 0.747380
B 3.072873 -0.876894 -0.254419
O 3.891154 -1.355740 -1.233374
C 1.542150 -1.280039 -0.325748
C 1.231227 -2.644677 -0.486571
C -0.091626 -3.086217 -0.517956
C -1.151581 -2.183938 -0.423146
C -0.883220 -0.811197 -0.288320
N -1.879299 0.177837 -0.238741
C -3.252699 0.027398 -0.208933
O -3.819743 -1.047831 -0.203021
C -4.005995 1.350631 -0.168671
C 0.463968 -0.394299 -0.220410
O 0.656396 1.004102 -0.162985
C 1.097252 1.610887 0.969188
O 1.414385 1.012649 1.968141
C 1.184924 3.102288 0.784168
H 2.977841 0.100934 1.441351
H 4.813796 -1.113969 -1.070251
H 2.047936 -3.363127 -0.589332
H -0.309292 -4.151500 -0.631471
H -2.187432 -2.513034 -0.458367
H -1.523606 1.125716 -0.271186
H -3.705834 2.011605 -0.998479
H -3.808592 1.882509 0.777151
H -5.080090 1.141429 -0.241995
H 0.333110 3.493172 0.209929
H 2.100086 3.325531 0.210859
H 1.253915 3.589451 1.764558