19
Extracted from mol_1691.out
O -2.855368 0.623900 1.070021
B -2.235502 -0.269496 0.255726
O -2.997322 -1.215793 -0.369804
C -0.657160 -0.234226 0.099824
C 0.032811 -1.462346 0.162927
C 1.421149 -1.535546 0.073517
C 2.173324 -0.357022 -0.100874
C 3.606456 -0.422923 -0.200643
N 4.763141 -0.483371 -0.279947
C 1.510277 0.875084 -0.179947
C 0.113637 0.940438 -0.077769
C -0.515133 2.294367 -0.200445
O 0.122496 3.310037 -0.360959
H -3.813029 0.486371 1.106844
H -2.510399 -1.781040 -0.981470
H -0.527822 -2.391136 0.307388
H 1.931635 -2.498895 0.138231
H 2.063847 1.805112 -0.324725
H -1.627039 2.316484 -0.137895