23
Extracted from mol_803.out
O -4.228650 -0.752855 0.579505
B -2.898819 -1.063503 0.459773
O -2.553754 -2.383718 0.481283
C -1.757544 0.001725 0.300906
C -1.999601 1.395434 0.255495
C -0.981541 2.327300 0.114527
C 0.357194 1.901517 0.009892
O 1.311973 2.820116 -0.124595
C 0.635411 0.504387 0.051817
C 2.040094 0.071687 -0.059567
O 2.982910 0.849665 -0.186324
O 2.220244 -1.250547 -0.012912
C 3.564286 -1.724186 -0.119767
C -0.423184 -0.409843 0.195532
H -4.421976 0.191015 0.562783
H -3.326593 -2.954939 0.582912
H -3.025099 1.776216 0.332172
H -1.183083 3.399949 0.080800
H 2.175701 2.337291 -0.182915
H 4.012233 -1.413430 -1.075753
H 4.183102 -1.330488 0.700755
H 3.504521 -2.817941 -0.062900
H -0.187823 -1.474851 0.225022