22
Extracted from mol_1877.out
O 3.579129 0.365048 -0.161368
B 2.694769 -0.626701 0.127945
O 3.182503 -1.858251 0.458894
C 1.156021 -0.272206 0.059681
C 0.757637 1.051460 -0.198125
C -0.595098 1.401514 -0.254755
C -0.989575 2.825209 -0.574954
F -0.134105 3.709966 -0.036310
F -0.998131 3.044249 -1.903219
F -2.219590 3.117699 -0.118476
C -1.582643 0.432681 -0.054603
C -1.205525 -0.889790 0.196150
C -2.265559 -1.953460 0.360035
F -3.388662 -1.458407 0.905457
F -1.841173 -2.961471 1.144142
F -2.607131 -2.495398 -0.824016
C 0.149135 -1.232159 0.252887
H 4.497972 0.072545 -0.091593
H 2.519583 -2.522346 0.678677
H 1.522831 1.816289 -0.346116
H -2.637677 0.708706 -0.081225
H 0.405287 -2.275178 0.460890