24
Extracted from mol_1826.out
O -1.797353 -2.406993 -1.194454
B -1.334605 -1.959447 0.018901
O -1.332378 -2.707361 1.171216
C -0.387965 -0.678243 -0.001819
C 0.992844 -0.759244 -0.224721
C 1.827813 0.374934 -0.247566
B 3.385496 0.239980 -0.500253
O 4.098932 1.200415 -1.155862
O 4.093035 -0.843313 -0.072417
C 1.228285 1.630759 -0.028101
C -0.141612 1.743608 0.208625
C -0.947391 0.595519 0.216791
C -2.426205 0.584585 0.462681
O -3.022206 -0.490662 0.508100
N -3.073477 1.764359 0.638940
H -2.369131 -3.182366 -1.146237
H -1.917263 -3.474291 1.154085
H 1.435230 -1.746368 -0.401338
H 3.542303 1.895397 -1.524586
H 3.564654 -1.450681 0.458097
H 1.843495 2.536727 -0.019137
H -0.562671 2.735586 0.398443
H -4.078244 1.738210 0.764966
H -2.621589 2.658894 0.515642