21
Extracted from mol_717.out
O -0.742752 -2.696848 0.374551
B -1.393082 -1.512029 0.484466
O -2.725182 -1.542631 0.863367
C -0.752853 -0.107218 0.216625
C 0.605160 0.033069 -0.175875
O 1.313668 -1.139671 -0.304380
C 2.675062 -1.107514 -0.684416
C 1.188741 1.279187 -0.416620
C 0.400316 2.429869 -0.263408
C -0.930081 2.348522 0.117956
C -1.509664 1.086424 0.358426
O -2.802056 1.081395 0.725031
H 0.178120 -2.533361 0.105049
H -3.051178 -2.440141 1.012878
H 3.287110 -0.549379 0.045270
H 2.807391 -0.658094 -1.683951
H 3.016229 -2.151422 -0.713575
H 2.230971 1.374467 -0.717097
H 0.849383 3.409565 -0.449726
H -1.551093 3.237647 0.240110
H -3.094210 0.158161 0.865318