22
Extracted from mol_1578.out
O -4.325108 0.239088 -0.070656
B -3.291201 -0.490508 -0.589073
O -3.607677 -1.534766 -1.394845
C -1.833162 -0.035844 -0.118528
C -1.838288 0.797147 1.023338
C -0.667778 1.265927 1.612647
C 0.558948 0.921438 1.057709
C 0.633195 0.119903 -0.097279
C 2.000427 -0.131891 -0.668196
O 2.256167 -0.370910 -1.823354
O 2.956481 -0.031433 0.278445
C 4.302291 -0.194411 -0.169444
C -0.570597 -0.357393 -0.665051
I -0.476141 -1.650185 -2.392680
H -5.176246 -0.101164 -0.377536
H -2.835089 -1.987546 -1.772694
H -2.806205 1.070920 1.446927
H -0.710848 1.900499 2.501300
H 1.489094 1.275912 1.502043
H 4.935006 -0.080419 0.719714
H 4.559940 0.565279 -0.923551
H 4.446792 -1.189643 -0.616822