40
Extracted from mol_386.out
O -3.512522 4.082859 -0.721819
B -2.218336 3.703155 -0.962353
O -1.382642 4.612476 -1.537666
C -1.653467 2.277582 -0.601161
C -0.270223 2.065485 -0.563272
C 0.257714 0.809061 -0.221012
O 1.613547 0.714889 -0.215257
C 2.231065 -0.527243 0.101934
C 3.727438 -0.352445 0.037242
C 4.410432 -0.508464 -1.178162
C 5.792402 -0.314396 -1.248444
C 6.508565 0.040678 -0.100595
C 5.837038 0.201340 1.115479
C 4.454500 0.007158 1.181397
C -0.608630 -0.251976 0.077753
C -2.005933 -0.067688 0.035973
C -2.922385 -1.199346 0.347839
C -2.630154 -2.108263 1.383086
C -3.491854 -3.167690 1.676833
C -4.667912 -3.344724 0.941301
C -4.972879 -2.451466 -0.090517
C -4.110581 -1.392300 -0.383281
C -2.507407 1.197676 -0.301121
H -4.030303 3.422171 -0.247234
H -1.823052 5.458523 -1.694697
H 0.425305 2.873282 -0.799586
H 1.925994 -0.853831 1.113526
H 1.903394 -1.303334 -0.614604
H 3.852329 -0.783912 -2.077879
H 6.312672 -0.441666 -2.201614
H 7.590390 0.190223 -0.153644
H 6.391980 0.478517 2.015802
H 3.931250 0.136360 2.133511
H -0.215674 -1.240215 0.315493
H -1.727418 -1.967200 1.982807
H -3.246589 -3.854707 2.491512
H -5.342364 -4.174068 1.170357
H -5.884797 -2.584871 -0.679113
H -4.347742 -0.717090 -1.209201
H -3.593153 1.335456 -0.319612