26
Extracted from mol_1722.out
O -0.966379 3.061281 -0.681593
B -0.500329 2.711980 0.541247
O -0.632498 3.605612 1.568148
C 0.261047 1.356451 0.896605
C 1.101160 1.398651 2.027030
C 1.844725 0.291913 2.438380
C 1.785055 -0.893622 1.707908
C 0.974084 -0.980574 0.570096
C 1.042172 -2.279422 -0.202892
O 1.077274 -3.362170 0.350170
N 1.114059 -2.146704 -1.567643
C 0.186175 0.129662 0.188405
C -0.794989 -0.037535 -0.936609
O -0.879934 0.689125 -1.912481
O -1.595189 -1.084309 -0.747057
C -2.510427 -1.407066 -1.798189
H -0.841814 2.368153 -1.358753
H -1.061690 4.417744 1.266323
H 1.154330 2.328865 2.596483
H 2.478435 0.355775 3.327016
H 2.367399 -1.770019 2.000898
H 1.268101 -2.994989 -2.102383
H 1.347141 -1.262734 -2.003526
H -1.956570 -1.733225 -2.692039
H -3.131613 -2.226183 -1.416827
H -3.129727 -0.536657 -2.058714