20
Extracted from mol_1423.out
O 3.881446 -0.004661 -0.002159
B 2.691202 0.639810 0.206282
O 2.721884 1.957824 0.539220
C 1.287271 -0.065884 0.075915
C 1.142461 -1.464529 0.046919
C -0.110376 -2.059350 -0.079836
C -1.255226 -1.259493 -0.172543
Cl -2.775572 -2.134552 -0.367130
C -1.169573 0.146484 -0.139072
C -2.289960 1.174026 -0.245569
O -2.036663 2.312381 -0.604487
N -3.541160 0.800656 0.132813
C 0.117854 0.701992 -0.022402
H 3.794971 -0.914669 -0.307744
H 3.622018 2.309293 0.566458
H 2.016245 -2.120123 0.132371
H -0.216643 -3.145103 -0.110498
H -4.274746 1.491788 0.025980
H -3.785115 -0.157672 0.343482
H 0.179679 1.791783 -0.018001