21
Extracted from mol_123.out
O -2.034572 2.349194 -0.759969
B -2.015017 1.191960 -0.027511
O -3.102792 0.905824 0.738486
C -0.748422 0.243265 -0.014561
C -0.789813 -1.173169 -0.060590
C -2.069899 -1.926175 -0.192473
O -2.137803 -3.135593 -0.245071
C 0.402909 -1.912518 -0.021346
C 1.636892 -1.274291 0.072560
C 1.715193 0.127097 0.121068
C 3.040663 0.836720 0.245882
C 0.515282 0.855867 0.065086
H -1.261345 2.459400 -1.326301
H -3.792756 1.579390 0.654001
H -2.991282 -1.300630 -0.245974
H 0.330862 -3.001696 -0.071590
H 2.555617 -1.867510 0.105855
H 3.131650 1.653696 -0.488750
H 3.152281 1.291188 1.245775
H 3.885747 0.148349 0.096971
H 0.576606 1.949630 0.108452