32
Extracted from mol_698.out
O -5.484233 1.410595 -0.626443
B -4.162935 1.675364 -0.809359
O -3.810811 2.867882 -1.376275
C -3.123724 0.575672 -0.353915
C -3.590924 -0.670757 0.112265
C -2.667620 -1.630766 0.505122
N -3.155767 -2.943281 0.993271
O -4.361342 -3.121937 1.027862
O -2.318741 -3.766874 1.331648
C -1.284421 -1.424280 0.466296
C -0.814949 -0.187413 0.009098
O 0.491334 0.152927 -0.078568
C 1.489648 -0.791703 0.314424
C 2.846211 -0.162515 0.130715
C 3.427499 0.589416 1.162583
C 4.670809 1.201443 0.983451
C 5.346836 1.068686 -0.233795
C 4.775199 0.322505 -1.269354
C 3.531396 -0.287909 -1.086843
C -1.741810 0.794090 -0.395190
H -6.049740 2.129552 -0.939173
H -2.864118 2.991549 -1.508675
H -4.656862 -0.887254 0.167189
H -0.629681 -2.228913 0.792557
H 1.333382 -1.076866 1.370453
H 1.397825 -1.704890 -0.300812
H 2.901073 0.694488 2.115885
H 5.114774 1.781667 1.796735
H 6.321215 1.544315 -0.374184
H 5.300932 0.213883 -2.221730
H 3.086684 -0.871115 -1.898653
H -1.317141 1.742439 -0.739277