23
Extracted from mol_1153.out
O -2.416028 -2.398601 -0.831387
B -1.347341 -1.721529 -0.343530
O -0.229093 -2.492141 -0.093069
C -1.267294 -0.157385 -0.082430
C -2.412518 0.669495 -0.034804
Cl -4.055082 0.001695 -0.196898
C -2.379452 2.048664 0.155915
C -1.137262 2.665144 0.304515
C 0.035946 1.921299 0.272959
C -0.012874 0.523972 0.090543
N 1.171846 -0.223663 0.071059
C 2.484704 0.200831 0.158202
O 2.841153 1.360303 0.259009
C 3.482169 -0.950481 0.126452
H -3.206155 -1.849946 -0.949961
H -0.392726 -3.421699 -0.305634
H -3.307975 2.619728 0.185346
H -1.084741 3.747329 0.450947
H 1.007101 2.395683 0.387301
H 1.031172 -1.230468 0.002830
H 4.496201 -0.534077 0.090021
H 3.380319 -1.573507 1.030791
H 3.317929 -1.600645 -0.748177