27
Extracted from mol_362.out
O 4.214431 -1.204219 -0.633427
B 3.341384 -0.155529 -0.690636
O 3.779491 0.963911 -1.303338
C 1.916335 -0.298437 0.031488
C 1.901595 -0.995696 1.253810
C 0.724620 -1.175186 1.981794
C -0.479769 -0.670069 1.495908
C -0.549105 0.020356 0.274356
C -1.890902 0.546926 -0.233326
C -2.716422 -0.590667 -0.864366
C -2.685875 1.280452 0.860449
C 0.668476 0.181999 -0.415064
N 0.625667 0.903864 -1.709002
O 1.288889 1.931087 -1.811342
O -0.077480 0.451320 -2.592008
H 3.832083 -2.006738 -0.262480
H 3.099199 1.653874 -1.356852
H 2.840469 -1.389964 1.653263
H 0.746375 -1.708214 2.935901
H -1.392451 -0.812384 2.078249
H -1.695633 1.281233 -1.028406
H -3.668453 -0.200984 -1.259950
H -2.166566 -1.059454 -1.693184
H -2.952683 -1.369067 -0.119654
H -3.581691 1.747425 0.420812
H -3.034211 0.598902 1.653390
H -2.087773 2.075261 1.333615