26
Extracted from mol_353.out
O 2.786917 1.891722 1.388259
B 2.993556 0.582283 1.077399
O 4.219064 0.040237 1.348890
C 1.799748 -0.223054 0.430662
C 1.958313 -1.521235 -0.090774
C 0.885266 -2.204328 -0.651643
C -0.386981 -1.599221 -0.702936
C -1.470857 -2.341663 -1.289789
N -2.330197 -2.961016 -1.767258
C -0.588458 -0.293796 -0.191487
C -1.950852 0.387158 -0.240637
C -2.469959 0.725893 1.168335
C -1.925032 1.632458 -1.146030
C 0.522391 0.359214 0.361309
H 3.565975 2.298428 1.791085
H 4.298434 -0.899654 1.150402
H 2.935445 -2.015910 -0.073849
H 1.014495 -3.210025 -1.057243
H -2.660332 -0.327577 -0.687374
H -3.483457 1.155086 1.109854
H -2.518196 -0.171217 1.805695
H -1.824726 1.463895 1.672870
H -1.242918 2.404344 -0.752664
H -2.930689 2.078333 -1.214465
H -1.595510 1.380257 -2.166309
H 0.398564 1.369388 0.759179