28
Extracted from mol_1718.out
O -1.247834 -3.166387 -1.185672
B -1.833004 -2.108919 -0.540754
O -3.154234 -2.168559 -0.279799
C -0.821521 -0.925081 -0.146733
C 0.536459 -1.262657 -0.306155
C 1.583240 -0.380326 -0.013995
C 2.988501 -0.858230 -0.211935
O 3.289070 -1.961953 -0.601172
O 3.898453 0.087684 0.094940
C 5.268004 -0.280520 -0.064979
C 1.286975 0.908961 0.446113
C -0.042233 1.285018 0.603084
C -1.097845 0.392732 0.324058
C -2.487158 0.906709 0.555751
O -3.507831 0.241296 0.618468
O -2.531665 2.235059 0.717619
C -3.814572 2.811404 0.974461
H -1.902124 -3.851028 -1.377923
H -3.476149 -1.346984 0.151156
H 0.793918 -2.255832 -0.675362
H 5.857563 0.598894 0.223358
H 5.520417 -1.137914 0.577920
H 5.479285 -0.557417 -1.109364
H 2.092812 1.607170 0.675472
H -0.279222 2.288493 0.954530
H -4.246920 2.403866 1.900799
H -3.645914 3.890806 1.072208
H -4.506472 2.603717 0.144600