21
Extracted from mol_1923.out
O 1.504795 2.070130 0.979225
B 1.448762 1.148806 -0.051051
O 2.164094 1.389155 -1.169823
C 0.499091 -0.115077 0.021687
C -0.904572 0.011099 -0.136611
B -1.647451 1.394112 -0.374142
O -2.906263 1.332406 -0.895706
O -1.137757 2.628824 -0.094281
C -1.696669 -1.154741 -0.109049
C -1.139180 -2.419265 0.090119
C 0.237799 -2.550545 0.257212
C 1.053242 -1.405189 0.215336
C 2.473795 -1.555478 0.397972
N 3.619482 -1.667236 0.555372
H 1.120681 1.746792 1.805044
H 2.730276 2.171301 -1.099001
H -3.291281 2.213242 -1.000428
H -0.268004 2.655497 0.332226
H -2.775308 -1.056788 -0.252859
H -1.777872 -3.305999 0.113020
H 0.692340 -3.531046 0.415738