22
Extracted from mol_1933.out
O 3.318012 0.014984 -1.506553
B 2.738591 -0.521061 -0.390915
O 3.343960 -1.382427 0.480367
C 1.162662 -0.354412 -0.252688
C 0.254745 -1.237257 -0.856414
C -1.124797 -1.060797 -0.717471
C -1.672509 0.000047 0.029964
B -3.225563 0.219834 0.199238
O -4.173922 -0.496240 -0.477691
O -3.639758 1.182017 1.067188
C -0.772678 0.886906 0.643813
C 0.598124 0.691873 0.487045
N 1.527878 1.636999 1.135909
O 2.729256 1.428876 0.977502
O 1.073242 2.559819 1.784084
H 4.275294 -0.089211 -1.568149
H 4.300552 -1.465469 0.385068
H 0.631739 -2.078102 -1.445142
H -1.786101 -1.785296 -1.206594
H -3.823540 -1.135216 -1.108432
H -4.602789 1.258841 1.099254
H -1.132393 1.725291 1.240617