26
Extracted from mol_1228.out
O -4.183031 -0.507022 0.913283
B -3.387842 -0.898781 -0.113594
O -3.950059 -1.606555 -1.143437
C -1.828321 -0.637027 -0.050089
C -0.965057 -1.745588 -0.125299
C 0.419329 -1.614189 -0.043766
C 1.006634 -0.345610 0.099378
N 2.407434 -0.270939 0.173339
C 3.217803 0.844089 0.308546
O 2.795736 1.981081 0.375093
C 4.702166 0.513004 0.373801
C 0.170247 0.783772 0.152213
C -1.216559 0.627132 0.083374
C -2.069235 1.878599 0.154733
F -3.118350 1.807018 -0.695655
F -1.375942 2.982134 -0.174754
F -2.569463 2.081298 1.383356
H -5.111743 -0.729788 0.759124
H -3.330205 -1.797966 -1.857091
H -1.386966 -2.749442 -0.236399
H 1.053512 -2.505168 -0.093440
H 2.883486 -1.164686 0.127002
H 4.930262 -0.086433 1.270999
H 5.024450 -0.062839 -0.509506
H 5.265352 1.452916 0.418665
H 0.616363 1.770994 0.237750