20
Extracted from mol_1324.out
O -2.258680 1.222213 1.762716
B -2.403985 0.313340 0.754802
O -3.650615 -0.191992 0.578842
C -1.166437 -0.126904 -0.145310
C 0.159946 0.154013 0.246869
C 1.270704 -0.221014 -0.521659
S 2.967338 0.091857 -0.089003
C 2.854879 0.937866 1.513266
C 1.050879 -0.904109 -1.734599
C -0.242984 -1.205946 -2.149360
C -1.315821 -0.820446 -1.349207
F -2.563346 -1.146025 -1.779158
H -1.388557 1.632485 1.797477
H -3.700552 -0.797671 -0.171257
H 0.320189 0.669661 1.196288
H 2.379602 0.304679 2.277804
H 3.894205 1.133307 1.813580
H 2.324913 1.899409 1.434132
H 1.900695 -1.205350 -2.353076
H -0.432373 -1.739370 -3.083148