37
Extracted from mol_585.out
O -0.071379 1.342238 -1.549966
B 1.114599 0.972853 -1.007135
O 2.242541 1.567449 -1.545893
C 1.275651 -0.068004 0.171710
C 2.538076 -0.441492 0.728331
N 3.699826 0.144645 0.205971
C 5.020262 -0.047104 0.559145
O 5.412393 -0.801870 1.430797
C 5.982149 0.809089 -0.257175
C 2.620678 -1.378651 1.779770
C 1.458890 -1.947977 2.283339
C 0.200786 -1.615988 1.773768
C 0.124370 -0.686545 0.731836
O -1.087739 -0.320898 0.190677
C -2.304420 -0.890671 0.677992
C -3.453101 -0.302178 -0.100709
C -3.878961 -0.895439 -1.299155
C -4.919457 -0.330624 -2.041495
C -5.544710 0.837427 -1.593105
C -5.126212 1.437999 -0.401382
C -4.085112 0.871099 0.338723
H -0.805660 0.877309 -1.111048
H 2.004610 2.180807 -2.254597
H 3.529162 0.808902 -0.548058
H 7.009504 0.526415 0.003084
H 5.833309 1.878179 -0.030748
H 5.823190 0.671833 -1.339179
H 3.597777 -1.638488 2.177457
H 1.529976 -2.673922 3.098217
H -0.691056 -2.080628 2.191049
H -2.272439 -1.987417 0.554860
H -2.410022 -0.669099 1.754375
H -3.391082 -1.809164 -1.651357
H -5.244400 -0.804078 -2.971738
H -6.360416 1.278748 -2.172010
H -5.613089 2.350278 -0.046721
H -3.758496 1.342555 1.270367