18
Extracted from mol_1297.out
O -3.134350 -0.817843 1.089813
B -2.540174 0.009893 0.189197
O -3.335441 0.799185 -0.592899
C -0.961543 -0.003593 0.103863
C -0.226748 -1.027818 0.740808
C 1.162088 -1.063161 0.671568
C 1.875256 -0.073491 -0.029938
C 3.359652 -0.119007 -0.095844
O 4.025844 -0.983708 0.428143
C 1.139410 0.943889 -0.653364
F 1.787062 1.907938 -1.326892
C -0.250232 0.986764 -0.595049
H -4.099008 -0.757140 1.063240
H -2.865766 1.320065 -1.254133
H -0.767000 -1.799365 1.293603
H 1.742067 -1.852310 1.156565
H 3.838107 0.709692 -0.670156
H -0.749224 1.820009 -1.099149