20
Extracted from mol_167.out
O -2.546806 -1.958641 -0.638739
B -2.087263 -0.802855 -0.066018
O -3.005244 0.047236 0.469102
C -0.544027 -0.465596 0.017885
C 0.353943 -1.538910 0.180984
C 1.731221 -1.354176 0.281661
C 2.246682 -0.050278 0.206504
C 3.663223 0.176849 0.297660
N 4.807857 0.359402 0.371411
C 1.368120 1.035982 0.039163
C -0.017466 0.852243 -0.048721
C -0.907029 2.062318 -0.217660
H -1.861621 -2.484525 -1.067764
H -3.907034 -0.289482 0.369839
H -0.035267 -2.560101 0.251147
H 2.404154 -2.203187 0.416973
H 1.783770 2.044608 -0.021334
H -1.554756 2.202484 0.661398
H -1.581317 1.951361 -1.081458
H -0.311139 2.975267 -0.361945