17
Extracted from mol_1627.out
O 3.135329 -0.362846 -0.695575
B 2.226609 0.455410 -0.098915
O 2.673370 1.608132 0.481526
C 0.712459 0.007800 -0.128834
C 0.318476 -1.104169 -0.898558
C -1.010962 -1.526058 -0.952946
C -1.993158 -0.844306 -0.228065
I -4.000749 -1.511612 -0.334403
C -1.635090 0.271195 0.559998
C -2.591079 1.014318 1.332063
N -3.321033 1.650612 1.973063
C -0.284940 0.675320 0.592719
H 4.034730 -0.011676 -0.644164
H 1.990124 2.178922 0.850593
H 1.075170 -1.649815 -1.467772
H -1.286195 -2.389829 -1.560901
H -0.043064 1.538603 1.220172