25
Extracted from mol_281.out
O 1.797870 -1.945226 1.111851
B 1.135349 -0.779581 1.391752
O 0.658638 -0.608279 2.653970
C 0.899628 0.363475 0.309788
C 1.905181 1.333095 0.150642
Br 3.498194 1.225269 1.231050
C 1.826305 2.390196 -0.757772
C 0.687547 2.488344 -1.555559
C -0.331677 1.542726 -1.432401
C -0.252505 0.480082 -0.516911
C -1.431756 -0.496221 -0.463200
C -2.204815 -0.431590 0.866931
C -1.040113 -1.938829 -0.831891
H 2.133525 -1.992418 0.208816
H 0.899447 -1.345659 3.232944
H 2.637503 3.115922 -0.835205
H 0.596591 3.305379 -2.276455
H -1.219720 1.629444 -2.064821
H -2.128980 -0.155702 -1.247707
H -1.593290 -0.767854 1.716810
H -2.531745 0.597961 1.083048
H -3.102921 -1.069606 0.816979
H -1.936550 -2.578300 -0.883784
H -0.358357 -2.387338 -0.093550
H -0.543348 -1.975292 -1.815325