24
Extracted from mol_1824.out
O -3.037677 1.892317 -0.297826
B -2.876072 0.577228 -0.066446
O -3.993921 -0.125272 0.310280
C -1.496577 -0.222220 -0.264597
C -1.620000 -1.538825 -0.750311
C -0.513992 -2.357067 -0.982075
C 0.765162 -1.872697 -0.714632
C 0.955673 -0.569927 -0.222797
B 2.453223 -0.106948 -0.007550
O 3.087109 0.520965 -1.036802
O 3.055711 -0.435913 1.182173
C -0.180195 0.248913 -0.009528
C 0.045816 1.662833 0.466714
O -0.535406 2.637997 -0.002620
N 0.986984 1.821251 1.440019
H -2.175186 2.336647 -0.442715
H -3.806216 -1.041867 0.537754
H -2.616844 -1.931613 -0.974120
H -0.650162 -3.368702 -1.374455
H 1.631829 -2.514586 -0.900488
H 4.002948 0.783851 -0.879601
H 3.989098 -0.198300 1.260222
H 1.379136 1.038621 1.950029
H 1.149562 2.763314 1.779371