20
Extracted from mol_1322.out
O -4.068789 0.156328 0.115558
B -2.938947 0.866979 -0.165200
O -3.121191 2.164967 -0.515427
C -1.498620 0.191405 -0.067575
C -1.306901 -1.051244 0.573149
C -0.047231 -1.640287 0.661312
C 1.071864 -1.006459 0.110360
C 0.938909 0.234388 -0.531506
S 2.251068 1.171560 -1.273812
C 3.705386 0.127814 -0.965480
C -0.350944 0.789006 -0.590215
F -0.457974 1.996573 -1.206814
H -3.912313 -0.777757 0.288392
H -2.293989 2.609241 -0.738306
H -2.160632 -1.563602 1.027688
H 0.075545 -2.602194 1.165376
H 2.049096 -1.484028 0.187627
H 3.893719 -0.006029 0.110427
H 4.550889 0.674786 -1.406624
H 3.621052 -0.851442 -1.460389