17
Extracted from mol_745.out
O 2.716526 -0.767780 -0.994723
B 1.914730 0.106278 -0.320471
O 2.529868 1.221411 0.213733
C 0.377962 -0.048925 -0.105297
C -0.327297 -1.158459 -0.617063
C -1.696713 -1.334517 -0.446297
C -2.389004 -0.353138 0.270036
F -3.708387 -0.497190 0.450602
C -1.760043 0.762707 0.800458
C -0.374508 0.921624 0.616406
O 0.179579 2.020787 1.152414
H 2.260446 -1.536258 -1.356184
H 3.481093 1.253765 0.044098
H 0.215038 -1.928068 -1.178236
H -2.231922 -2.196783 -0.846592
H -2.325819 1.512294 1.355173
H 1.138450 2.022254 0.961943