26
Extracted from mol_221.out
O 0.376234 2.600802 -0.755416
B 1.361312 1.649883 -0.694202
O 2.603389 2.041232 -1.096116
C 1.042810 0.184484 -0.157711
C 2.127920 -0.667839 0.171282
O 3.409034 -0.200735 -0.026757
C 1.956638 -1.954697 0.688478
C 0.666239 -2.439530 0.881741
C -0.428862 -1.645042 0.548271
C -0.267962 -0.348114 0.029083
C -1.529833 0.456219 -0.295734
C -2.022586 1.214890 0.951712
C -2.660707 -0.387601 -0.907422
H 0.741986 3.435137 -1.080958
H 3.262888 1.346454 -0.939736
H 4.049111 -0.881064 0.218708
H 2.830512 -2.567841 0.933157
H 0.516112 -3.443837 1.287345
H -1.432438 -2.046523 0.695254
H -1.255589 1.213202 -1.039094
H -1.243240 1.889417 1.334866
H -2.303114 0.514998 1.757481
H -2.908588 1.825722 0.709517
H -3.466806 0.273849 -1.265153
H -2.307355 -0.981421 -1.765878
H -3.117108 -1.082045 -0.182715