24
Extracted from mol_1066.out
O -4.052402 1.249986 -0.585646
B -3.363189 0.066970 -0.574316
O -4.045952 -1.067896 -0.890257
C -1.814136 0.012428 -0.262227
C -1.003730 1.040480 -0.779107
C 0.382748 1.084211 -0.603465
C 0.997548 0.062281 0.135054
O 2.351440 -0.044543 0.398862
C 3.319400 0.847723 0.040288
O 3.124236 1.867083 -0.566273
C 4.660113 0.354187 0.522016
C 0.226512 -0.968689 0.674163
C -1.159404 -1.003448 0.480051
C -1.905162 -2.130360 1.121227
O -1.369738 -3.006157 1.764743
H -3.533375 2.006357 -0.287178
H -4.978658 -0.888722 -1.076934
H -1.460532 1.841504 -1.369915
H 0.975917 1.889827 -1.027444
H 5.437834 1.072403 0.236177
H 4.643538 0.227212 1.615704
H 4.876036 -0.632867 0.084064
H 0.699933 -1.760213 1.258244
H -3.008979 -2.119754 0.974927