22
Extracted from mol_1859.out
O 0.806924 2.300155 0.734889
B 0.230017 1.759382 -0.376041
O 0.291896 2.445417 -1.553480
C -0.305858 0.256104 -0.253528
C -1.633230 -0.042716 0.082628
N -2.558011 1.085931 0.323914
O -2.116047 2.215042 0.142441
O -3.695665 0.839850 0.679907
C -2.142591 -1.338423 0.191671
C -1.282364 -2.407865 -0.047558
C 0.055659 -2.162908 -0.373973
C 0.544855 -0.850234 -0.470197
S 2.266145 -0.605698 -0.940854
C 3.027553 -0.249031 0.688022
H 1.113621 3.203088 0.570906
H -0.103117 1.991081 -2.305433
H -3.190235 -1.481327 0.455827
H -1.651342 -3.433863 0.023812
H 0.740122 -2.994422 -0.557317
H 2.575525 0.646710 1.135101
H 2.933023 -1.112025 1.363144
H 4.093117 -0.064249 0.486122