23
Extracted from mol_1840.out
O 3.305371 0.687417 -1.041896
B 2.800157 -0.031182 0.003161
O 3.549349 -0.564288 1.012504
C 1.261614 -0.411280 -0.044865
C 0.945345 -1.702047 -0.501003
C -0.382151 -2.102576 -0.632675
C -1.417779 -1.227029 -0.307455
C -1.145622 0.069008 0.160852
S -2.460721 1.197456 0.594040
C -3.933816 0.422969 -0.135169
C 0.212819 0.464626 0.295378
C 0.558482 1.860660 0.772458
F -0.141645 2.218787 1.864232
F 1.864238 1.965056 1.114315
F 0.330977 2.794289 -0.166356
H 4.248386 0.888590 -0.997000
H 4.489811 -0.346968 0.993600
H 1.748490 -2.397544 -0.758841
H -0.622098 -3.108478 -0.988607
H -2.446859 -1.569079 -0.412089
H -4.736810 1.160441 0.009101
H -3.808893 0.238364 -1.212637
H -4.218645 -0.507192 0.378952