24
Extracted from mol_1654.out
O -2.550488 -2.707878 0.337980
B -1.693255 -1.932384 -0.394488
O -1.330642 -2.359071 -1.624819
C -1.272397 -0.549878 0.291318
C -2.164008 -0.087191 1.281434
C -1.970385 1.116882 1.960528
C -0.866209 1.905834 1.656378
C 0.059988 1.486716 0.690169
C 1.163047 2.447331 0.369407
O 1.393388 3.435067 1.029196
C -0.130866 0.250343 0.020891
C 0.915065 -0.239208 -0.939892
O 0.700052 -0.729454 -2.033436
O 2.155062 -0.103219 -0.459217
C 3.228815 -0.545977 -1.299665
H -2.797808 -3.504093 -0.151691
H -0.693242 -1.759388 -2.061459
H -3.031999 -0.705528 1.518534
H -2.687932 1.440877 2.719062
H -0.691588 2.867205 2.144622
H 1.755681 2.235625 -0.549503
H 3.118289 -1.615176 -1.532726
H 4.148697 -0.368397 -0.730035
H 3.242735 0.020961 -2.242587