26
Extracted from mol_1728.out
O -1.505509 3.412064 -0.959439
B -2.164248 2.316567 -0.488483
O -3.515535 2.403015 -0.306128
C -1.319590 1.019848 -0.181667
C -1.921039 -0.185852 0.208687
C -1.173970 -1.343006 0.478060
C -1.940802 -2.576901 0.891994
O -3.127441 -2.520467 1.174123
N -1.238609 -3.746060 0.937176
C 0.218872 -1.282309 0.373290
C 0.851806 -0.090957 -0.013098
C 2.344326 -0.103619 -0.103554
O 3.030673 -1.076584 0.117207
O 2.852420 1.089018 -0.459939
C 4.273102 1.165083 -0.571969
C 0.083715 1.047122 -0.292066
H -2.102869 4.157151 -1.109568
H -3.926696 1.608112 0.053389
H -3.005551 -0.281050 0.321135
H -1.751860 -4.587373 1.171897
H -0.305124 -3.839416 0.562411
H 0.861616 -2.135556 0.600486
H 4.754708 0.922033 0.387713
H 4.501826 2.197979 -0.862856
H 4.643929 0.462081 -1.333838
H 0.581851 1.969080 -0.594965