44
Extracted from mol_546.out
O -3.887102 4.059745 -0.669926
B -3.022117 3.120441 -0.184636
O -3.520428 2.233693 0.714763
C -1.500501 3.068709 -0.650951
C -0.889424 4.180597 -1.269349
C 0.443564 4.149809 -1.667740
C 1.219344 3.003236 -1.454229
C 0.651730 1.886305 -0.829710
O 1.312585 0.731113 -0.560621
C 2.712612 0.652047 -0.762739
C 3.227128 -0.654627 -0.203836
C 2.620128 -1.248634 0.913105
C 3.137520 -2.430674 1.451232
C 4.267751 -3.029505 0.884893
C 4.875775 -2.442728 -0.228951
C 4.354421 -1.264674 -0.772110
C -0.706986 1.929996 -0.431060
O -1.235675 0.844001 0.236410
C -1.551072 -0.309190 -0.577730
C -2.150145 -1.385053 0.290023
C -3.465722 -1.264541 0.768576
C -4.017884 -2.256824 1.582037
C -3.264000 -3.385283 1.923719
C -1.954417 -3.514033 1.452441
C -1.400622 -2.516725 0.643234
H -3.504766 4.612403 -1.359851
H -2.823434 1.605018 0.971276
H -1.465345 5.097987 -1.428881
H 0.897471 5.022350 -2.144744
H 2.262796 2.991242 -1.771039
H 2.956939 0.730696 -1.838917
H 3.206479 1.503207 -0.252776
H 1.733308 -0.783563 1.348749
H 2.654121 -2.885558 2.320218
H 4.671107 -3.953427 1.307918
H 5.754868 -2.907731 -0.683254
H 4.829554 -0.817444 -1.650996
H -2.264832 0.004236 -1.360703
H -0.631266 -0.668651 -1.062880
H -4.058535 -0.382981 0.508041
H -5.042734 -2.150651 1.947718
H -3.698577 -4.164001 2.556483
H -1.360243 -4.393288 1.715955
H -0.373372 -2.617046 0.280834