23
Extracted from mol_1839.out
O -1.093589 -1.194969 2.306065
B -0.287711 -1.239657 1.208942
O 0.563734 -2.264730 0.902476
C -0.338673 -0.001747 0.211479
C -1.365286 0.200651 -0.732202
C -2.533419 -0.756009 -0.815554
F -3.038933 -0.825109 -2.060909
F -2.187368 -2.012654 -0.460951
F -3.542995 -0.388293 -0.005996
C -1.366295 1.313991 -1.582388
C -0.341735 2.256897 -1.499196
C 0.683322 2.084008 -0.567352
C 0.689097 0.962158 0.273394
S 1.994631 0.800352 1.505425
C 3.220848 -0.197397 0.579231
H -1.032458 -1.948437 2.906267
H 0.573498 -2.996652 1.531999
H -2.170947 1.438340 -2.309742
H -0.344163 3.128521 -2.158640
H 1.487081 2.819215 -0.480778
H 2.797562 -1.178250 0.322083
H 3.553354 0.329851 -0.326944
H 4.080445 -0.330079 1.253292