32
Extracted from mol_641.out
O -5.885234 -0.998593 -0.102471
B -5.209192 0.083837 0.373281
O -5.942778 1.124926 0.881030
C -3.638341 0.066404 0.311506
C -2.846321 1.188472 0.620030
C -1.451428 1.166167 0.563143
C -0.790248 -0.015434 0.186273
O 0.553233 -0.134802 0.104156
C 1.394336 0.981208 0.403462
C 2.830500 0.564432 0.219346
C 3.406090 0.552211 -1.060570
C 4.727292 0.136678 -1.241400
C 5.489594 -0.271432 -0.141437
C 4.925227 -0.263501 1.137602
C 3.601665 0.150232 1.314786
C -1.556277 -1.166961 -0.132891
C -0.906440 -2.441708 -0.536912
O -1.519816 -3.450381 -0.814838
C -2.953414 -1.100399 -0.066893
H -6.841941 -0.901337 -0.006094
H -5.415705 1.843335 1.247839
H -3.319883 2.133471 0.911743
H -0.890930 2.067504 0.810481
H 1.216303 1.312983 1.441763
H 1.144084 1.819928 -0.270999
H 2.811968 0.870228 -1.922361
H 5.165016 0.132883 -2.243164
H 6.524704 -0.594166 -0.281842
H 5.516704 -0.581430 2.000237
H 3.161393 0.151909 2.316372
H 0.207582 -2.420213 -0.571339
H -3.507745 -2.006453 -0.323922