35
Extracted from mol_199.out
O -3.511515 2.747931 -1.610801
B -3.068113 2.152349 -0.465093
O -3.920152 2.233268 0.600276
C -1.635662 1.476049 -0.394510
C -0.540702 2.231913 -0.865493
C 0.767251 1.755296 -0.821912
C 1.036959 0.473521 -0.309195
C 2.426180 -0.056991 -0.251614
C 2.858450 -0.845703 0.832186
C 4.163046 -1.341494 0.886861
C 5.067288 -1.061236 -0.142311
C 4.654171 -0.279524 -1.225712
C 3.349840 0.216997 -1.278901
C -0.051757 -0.291366 0.143342
C -1.373789 0.178966 0.114120
C -2.501783 -0.741685 0.584775
C -2.638225 -1.982777 -0.316123
C -2.352200 -1.142251 2.063620
H -2.907208 2.614992 -2.350256
H -3.539918 1.874358 1.409568
H -0.716570 3.239205 -1.258210
H 1.588102 2.390935 -1.162705
H 2.170264 -1.051561 1.655706
H 4.477399 -1.943935 1.743562
H 6.088411 -1.449397 -0.100058
H 5.350137 -0.060204 -2.040105
H 3.034289 0.807045 -2.142889
H 0.142097 -1.304155 0.505749
H -3.443862 -0.179309 0.493780
H -1.740278 -2.621018 -0.268431
H -3.500088 -2.596322 -0.005244
H -2.788159 -1.696294 -1.369136
H -2.283656 -0.258318 2.719325
H -3.215218 -1.743475 2.394141
H -1.445032 -1.745806 2.231690