23
Extracted from mol_47.out
O -3.578148 0.160445 -0.748944
B -2.606880 0.923516 -0.166635
O -2.989918 2.155557 0.306860
C -1.122311 0.414358 -0.074832
C -0.093391 1.370682 -0.022698
C 1.263410 1.040158 0.046737
C 1.620437 -0.314076 0.074620
O 2.894026 -0.774763 0.147575
C 3.959855 0.146475 0.202412
C 0.612474 -1.293390 0.025151
C -0.740211 -0.959357 -0.056192
C -1.759725 -2.074044 -0.114041
H -4.432660 0.613379 -0.735776
H -2.291794 2.613053 0.789362
H -0.348368 2.436148 -0.058904
H 2.013643 1.830809 0.074093
H 4.002174 0.781873 -0.701189
H 3.894659 0.799823 1.091728
H 4.883359 -0.445613 0.263532
H 0.926703 -2.339782 0.051498
H -2.529780 -1.959155 0.664962
H -2.298071 -2.070803 -1.074496
H -1.279482 -3.055289 0.015177