20
Extracted from mol_1316.out
O 1.080193 2.690338 -0.658840
B 0.125875 2.195643 0.151098
O -0.518196 3.047658 1.011865
C -0.404794 0.681436 0.184614
C -1.705955 0.540385 0.705669
C -2.352921 -0.693819 0.788855
C -1.695132 -1.846701 0.367280
C -0.401077 -1.724955 -0.123791
F 0.210103 -2.873089 -0.505319
C 0.275917 -0.497768 -0.241040
C 1.667229 -0.455365 -0.835506
O 2.060378 0.477443 -1.537430
N 2.499112 -1.485747 -0.551588
H 1.497411 1.974373 -1.196048
H -0.173493 3.945593 0.913865
H -2.218157 1.438330 1.054051
H -3.369218 -0.759480 1.186057
H -2.153644 -2.836702 0.410242
H 2.171981 -2.336703 -0.114968
H 3.404388 -1.480868 -1.009067