20
Extracted from mol_1317.out
O 3.763426 -0.780018 0.274852
B 3.001345 0.146607 -0.366874
O 3.637052 1.143943 -1.053529
C 1.431507 0.009668 -0.269613
C 0.848887 -0.912252 0.623156
C -0.533597 -1.040329 0.725738
C -1.408000 -0.264764 -0.056460
C -2.892731 -0.499682 0.148027
O -3.280568 -1.323085 0.960980
N -3.752521 0.238747 -0.604556
C -0.814203 0.643064 -0.943538
F -1.580276 1.428514 -1.741477
C 0.564626 0.786288 -1.055688
H 4.709425 -0.608814 0.172463
H 3.052382 1.801816 -1.446276
H 1.499488 -1.533456 1.242531
H -0.994899 -1.749010 1.416688
H -3.438062 0.919769 -1.281317
H -4.742621 0.076622 -0.465578
H 0.929341 1.516372 -1.784855