40
Extracted from mol_389.out
O -0.775441 5.207451 -0.220094
B -1.708005 4.563349 -0.980241
O -2.648404 5.326507 -1.618864
C -1.644945 2.993779 -1.069358
C -2.501257 2.244929 -1.890429
C -2.415471 0.852343 -1.932915
C -1.480529 0.141109 -1.164369
C -1.421912 -1.344706 -1.255244
C -1.502145 -1.975738 -2.511931
C -1.497497 -3.368477 -2.622691
C -1.415473 -4.163794 -1.476280
C -1.333334 -3.552299 -0.220814
C -1.331911 -2.160271 -0.110089
C -0.606704 0.895384 -0.334592
O 0.305616 0.191911 0.389774
C 1.283424 0.876234 1.151191
C 2.231991 -0.117756 1.781897
C 2.901414 0.221927 2.967176
C 3.826827 -0.654892 3.539878
C 4.087049 -1.889779 2.937490
C 3.416836 -2.238360 1.760840
C 2.496681 -1.358107 1.183342
C -0.697692 2.292470 -0.298729
H -0.906108 6.165105 -0.225825
H -3.295141 4.816452 -2.119778
H -3.256295 2.737281 -2.513314
H -3.105819 0.288533 -2.565233
H -1.549466 -1.363850 -3.416384
H -1.552667 -3.833116 -3.611076
H -1.412195 -5.253964 -1.560165
H -1.271121 -4.164553 0.683165
H -1.265241 -1.696798 0.874720
H 0.804749 1.491418 1.935786
H 1.845039 1.570940 0.494988
H 2.695305 1.182321 3.450439
H 4.339649 -0.375521 4.464327
H 4.806361 -2.579838 3.386763
H 3.610540 -3.204560 1.286748
H 1.969100 -1.634043 0.268582
H -0.025808 2.870977 0.334730