32
Extracted from mol_695.out
O -2.884442 -2.785352 0.181043
B -2.218371 -1.859655 -0.570233
O -1.497870 -2.278719 -1.647204
C -2.047633 -0.329306 -0.152301
C -2.880213 0.703133 -0.584783
N -4.033770 0.339500 -1.435906
O -4.749636 1.230171 -1.855882
O -4.204952 -0.853250 -1.664533
C -2.687176 2.052954 -0.275609
C -1.585001 2.382875 0.508124
C -0.712101 1.390849 0.971990
C -0.952065 0.045379 0.654572
O -0.186536 -0.993740 1.087943
C 1.073242 -0.772909 1.703493
C 2.153286 -0.323079 0.738161
C 2.122883 -0.725534 -0.606029
C 3.150127 -0.348800 -1.475804
C 4.219439 0.425918 -1.014115
C 4.254773 0.829723 0.323984
C 3.223449 0.460742 1.193002
H -3.381312 -2.412828 0.917508
H -1.634212 -3.220303 -1.821448
H -3.381344 2.801176 -0.655251
H -1.391634 3.427930 0.762180
H 0.154582 1.678132 1.567054
H 0.983378 -0.068317 2.550036
H 1.335719 -1.753889 2.132320
H 1.285784 -1.326441 -0.970809
H 3.113885 -0.663039 -2.522408
H 5.021297 0.718559 -1.697204
H 5.083407 1.441016 0.691636
H 3.253018 0.787107 2.237797