29
Extracted from mol_516.out
O -4.371966 1.884491 -0.249638
B -3.013814 1.992507 -0.135342
O -2.466940 3.239921 -0.139322
C -2.040327 0.758043 -0.001592
C -2.513672 -0.560211 0.111160
C -1.624499 -1.631991 0.223358
C -2.135799 -3.049538 0.302380
F -1.420519 -3.792125 1.166788
F -2.063848 -3.669459 -0.892715
F -3.422421 -3.102647 0.693792
C -0.244837 -1.403179 0.229731
C 0.267162 -0.099226 0.117741
C 1.735311 0.146413 0.124350
C 2.622488 -0.748686 -0.503622
C 3.999993 -0.518680 -0.496963
C 4.522176 0.611785 0.139042
C 3.654011 1.510271 0.767077
C 2.276449 1.280760 0.759090
C -0.649809 0.961770 0.003444
H -4.707338 0.981030 -0.267951
H -3.136538 3.930433 -0.235807
H -3.585870 -0.774920 0.126122
H 0.436554 -2.247426 0.352352
H 2.227566 -1.623782 -1.025855
H 4.668496 -1.223520 -0.998686
H 5.600414 0.791890 0.145006
H 4.052030 2.393521 1.273975
H 1.612389 1.979766 1.273307
H -0.276845 1.982789 -0.102586