23
Extracted from mol_139.out
O -1.973681 -1.983750 0.552462
B -0.746535 -1.676536 0.035104
O -0.012847 -2.708151 -0.465252
C -0.271052 -0.155334 0.094866
C 1.086414 0.183973 0.331224
C 2.194692 -0.843058 0.390833
O 2.790237 -1.140468 1.401710
N 2.490594 -1.439543 -0.837512
C 1.490143 1.509188 0.550309
C 0.554310 2.537637 0.476941
C -0.778673 2.233876 0.199705
C -1.212957 0.910390 0.024429
C -2.685092 0.676509 -0.236826
H -2.131540 -2.937240 0.507503
H 0.877930 -2.462529 -0.775566
H 2.304376 -0.899513 -1.678519
H 3.353200 -1.980989 -0.848581
H 2.538511 1.725646 0.771656
H 0.862024 3.575275 0.632270
H -1.509831 3.044467 0.128496
H -3.187939 1.620826 -0.494116
H -2.850157 -0.038398 -1.056497
H -3.182125 0.247720 0.646962