31
Extracted from mol_682.out
O -0.905455 -2.093221 -1.271427
B -2.136179 -1.823478 -0.758997
O -3.114856 -2.771376 -0.810313
C -2.503557 -0.429724 -0.102173
C -3.841836 -0.117250 0.202227
C -4.206814 1.115446 0.750028
C -3.231299 2.079212 0.999502
C -1.881985 1.805472 0.708263
C -0.871802 2.799715 0.931329
N -0.047523 3.599732 1.105708
C -1.527442 0.547363 0.167124
O -0.212796 0.295517 -0.148210
C 0.675241 -0.030256 0.955046
C 2.073570 -0.169483 0.420584
C 2.551626 -1.416876 -0.008921
C 3.840571 -1.538626 -0.536167
C 4.661134 -0.411231 -0.641258
C 4.189416 0.837332 -0.220826
C 2.901305 0.958728 0.305929
H -0.329087 -1.311931 -1.196116
H -2.809328 -3.577831 -1.247394
H -4.607499 -0.870176 -0.001100
H -5.253853 1.330677 0.976113
H -3.498969 3.053738 1.413632
H 0.326594 -0.970237 1.416695
H 0.621933 0.771927 1.707207
H 1.907206 -2.298047 0.066586
H 4.204940 -2.515618 -0.864677
H 5.670386 -0.505245 -1.051279
H 4.828275 1.720586 -0.303563
H 2.528084 1.935162 0.628260