16
Extracted from mol_1368.out
O 2.638729 -1.230702 -0.096149
B 2.033578 -0.037102 0.173318
O 2.818735 1.012255 0.530639
C 0.448263 -0.015961 0.035404
C -0.169402 -1.227131 -0.339314
C -1.550634 -1.339650 -0.493036
C -2.367035 -0.230635 -0.274515
C -1.794651 0.989167 0.098114
Cl -2.842070 2.357118 0.363672
C -0.399844 1.089756 0.250407
Cl 0.249173 2.660659 0.722988
H 3.597770 -1.170842 0.007774
H 2.316213 1.821961 0.703374
H 0.470623 -2.094514 -0.510360
H -1.998427 -2.293028 -0.784280
H -3.451021 -0.291354 -0.388037