23
Extracted from mol_1164.out
O -4.331647 0.769430 0.182351
B -3.191677 0.991958 -0.542661
O -3.220472 1.932527 -1.519988
C -1.899384 0.105231 -0.318905
C -2.057469 -1.293868 -0.374956
C -0.965427 -2.148342 -0.221145
C 0.310036 -1.638333 0.009550
C 0.514877 -0.246126 0.092923
N 1.774347 0.315145 0.337039
C 2.989195 -0.313164 0.544594
O 3.146439 -1.518980 0.542037
C 4.134145 0.660072 0.788964
C -0.609265 0.597770 -0.077718
Br -0.352786 2.505162 0.076662
H -4.219346 0.108941 0.876719
H -4.078032 2.378095 -1.567318
H -3.050853 -1.713231 -0.561184
H -1.102807 -3.231239 -0.280536
H 1.170079 -2.292184 0.135877
H 1.778308 1.330690 0.365948
H 5.064969 0.087082 0.878014
H 3.969728 1.229460 1.718971
H 4.227042 1.383904 -0.037288