21
Extracted from mol_122.out
O 2.782185 -1.980744 1.210251
B 2.561894 -0.936703 0.362271
O 3.658376 -0.451235 -0.285589
C 1.117561 -0.323129 0.142280
C 0.935678 1.044015 -0.134979
C -0.343479 1.579494 -0.327600
C -0.511491 3.028173 -0.612048
O -1.573306 3.575431 -0.801284
C -1.470576 0.743538 -0.255681
C -1.334520 -0.621150 0.014404
C -2.538123 -1.527672 0.110715
C -0.035190 -1.126223 0.212647
H 2.002979 -2.226256 1.721391
H 3.445261 0.215007 -0.948439
H 1.800430 1.715936 -0.189682
H 0.449128 3.608040 -0.642840
H -2.454352 1.192163 -0.418978
H -2.780586 -1.752906 1.164154
H -2.358334 -2.491040 -0.392673
H -3.428541 -1.065919 -0.340933
H 0.075006 -2.198819 0.412614