29
Extracted from mol_323.out
O 3.743873 -1.367192 0.444482
B 3.488709 -0.138301 -0.085783
O 4.547397 0.589287 -0.560289
C 1.996808 0.366455 -0.128587
C 1.661875 1.702235 -0.406951
C 0.329986 2.107874 -0.439124
C -0.714538 1.193073 -0.212299
C -2.137042 1.689161 -0.327860
O -3.020092 1.065310 -0.894481
N -2.365038 2.926432 0.215880
C -0.413749 -0.162979 0.071077
C -1.494388 -1.217004 0.310315
C -1.152002 -2.185796 1.454379
C -1.801298 -1.978107 -0.993700
C 0.941024 -0.529947 0.113938
H 4.683068 -1.592211 0.402911
H 4.297281 1.419741 -0.981202
H 2.441297 2.449287 -0.595894
H 0.086623 3.147522 -0.672703
H -1.714157 3.346909 0.866000
H -3.317986 3.272524 0.192550
H -2.418305 -0.691021 0.589275
H -0.308320 -2.849686 1.205016
H -2.017973 -2.833324 1.668107
H -0.894251 -1.648824 2.381710
H -0.909666 -2.514856 -1.360300
H -2.599489 -2.720871 -0.827611
H -2.140890 -1.280597 -1.772216
H 1.201243 -1.565094 0.343362