22
Extracted from mol_1661.out
O -3.314007 -1.885807 -0.491539
B -2.779720 -0.631111 -0.388598
O -3.625639 0.432354 -0.451093
C -1.217650 -0.402659 -0.258158
C -0.369795 -1.199758 -1.055211
C 1.015975 -1.052593 -1.033961
C 1.615692 -0.092383 -0.202933
C 3.124393 0.000595 -0.226109
O 3.803494 -0.863878 -0.755035
N 3.673398 1.093419 0.379202
C 0.794965 0.690533 0.612077
C -0.602107 0.550307 0.589091
C -1.388056 1.415222 1.519458
O -0.882410 2.232608 2.258286
H -2.671354 -2.596913 -0.380967
H -4.548071 0.158257 -0.556639
H -0.805497 -1.946185 -1.727473
H 1.665984 -1.673585 -1.654080
H 4.680635 1.193049 0.332709
H 3.123803 1.888042 0.675269
H 1.197614 1.424343 1.314591
H -2.491647 1.266139 1.501110