32
Extracted from mol_249.out
O -2.430382 2.992058 2.060519
B -2.304239 2.297501 0.891290
O -3.349539 2.437007 0.020324
C -1.005405 1.446763 0.579971
C 0.243657 2.054470 0.828170
C 1.464641 1.434107 0.571078
C 1.459772 0.128286 0.050826
N 2.630237 -0.594836 -0.242920
C 3.952442 -0.220425 -0.088889
O 4.306410 0.856203 0.350368
C 4.942465 -1.291483 -0.528786
C 0.226911 -0.503101 -0.188372
C -0.998783 0.126096 0.062208
C -2.295138 -0.641514 -0.207264
C -2.377915 -1.951304 0.596270
C -2.507648 -0.900140 -1.710639
H -1.707568 2.812451 2.672813
H -3.186191 2.014699 -0.829897
H 0.267233 3.073522 1.229285
H 2.410415 1.934895 0.763347
H 2.471810 -1.522629 -0.619358
H 4.785254 -2.232143 0.024648
H 4.834895 -1.509803 -1.604454
H 5.958161 -0.924926 -0.337359
H 0.233143 -1.526108 -0.579224
H -3.126305 -0.006748 0.135475
H -2.243033 -1.768264 1.673985
H -1.608900 -2.675838 0.280338
H -3.360063 -2.431504 0.453688
H -1.718483 -1.550247 -2.123875
H -3.476448 -1.394308 -1.891907
H -2.491408 0.037265 -2.291663