26
Extracted from mol_430.out
O -1.362655 -2.042006 -0.783629
B -1.925012 -0.827487 -1.048917
O -2.998872 -0.800244 -1.892400
C -1.473080 0.550875 -0.411295
C -2.420879 1.594004 -0.416973
C -2.170531 2.819434 0.202736
C -0.951461 3.032733 0.848143
C -0.008440 2.009633 0.850133
F 1.168527 2.237212 1.462352
C -0.224855 0.768994 0.230213
C 0.878789 -0.240416 0.243697
C 1.389576 -0.743341 1.455515
C 2.428961 -1.677339 1.460713
C 2.982941 -2.121328 0.255554
C 2.490884 -1.624884 -0.955433
C 1.449276 -0.693058 -0.961207
H -0.583047 -1.997727 -0.214519
H -3.225234 -1.687585 -2.202393
H -3.377754 1.424161 -0.914691
H -2.923933 3.611402 0.187667
H -0.710151 3.975771 1.343523
H 0.964918 -0.397089 2.400786
H 2.808440 -2.059467 2.412189
H 3.797555 -2.850346 0.260574
H 2.921721 -1.960983 -1.902327
H 1.074315 -0.300918 -1.910010