23
Extracted from mol_54.out
O -3.334499 -2.064682 0.034258
B -2.704263 -0.850919 0.053606
O -3.511269 0.238846 0.093396
C -1.116262 -0.733748 0.034604
C -0.305065 -1.877435 0.074093
C 1.091892 -1.826607 0.061869
C 1.747038 -0.592081 0.009329
C 3.253082 -0.494750 -0.006760
C 0.966954 0.577035 -0.027451
C -0.430625 0.508622 -0.013033
O -1.212482 1.635505 -0.042968
C -0.619779 2.916963 -0.101746
H -2.738777 -2.818323 -0.019258
H -2.975345 1.046751 0.087106
H -0.773346 -2.866961 0.120952
H 1.673303 -2.751895 0.094550
H 3.610882 0.015397 -0.917301
H 3.722850 -1.488705 0.029010
H 3.625595 0.086730 0.853753
H 1.474157 1.542118 -0.065609
H 0.011066 3.115307 0.782581
H -0.010237 3.041096 -1.013893
H -1.444869 3.641735 -0.121092