21
Extracted from mol_178.out
O -2.948993 -1.076586 -0.165230
B -1.747331 -1.045811 -0.822831
O -1.652380 -1.701770 -2.008622
C -0.452238 -0.329270 -0.261656
C 0.727750 -1.089135 -0.211901
C 1.899567 -0.539917 0.306825
N 3.123471 -1.365796 0.363059
O 3.050360 -2.515815 -0.039996
O 4.134025 -0.846705 0.811719
C 1.945851 0.773508 0.770952
C 0.783693 1.539704 0.703063
C -0.417631 1.014590 0.195430
C -1.628117 1.915543 0.092348
H -2.926095 -0.681567 0.713795
H -2.475158 -2.154107 -2.243451
H 0.749496 -2.116725 -0.576325
H 2.879265 1.172060 1.168366
H 0.809959 2.576200 1.050471
H -1.471486 2.864337 0.625424
H -2.541388 1.449409 0.491717
H -1.842619 2.157854 -0.963158