21
Extracted from mol_1849.out
O 1.503064 1.507866 1.424116
B 0.219444 1.563043 0.976319
O -0.491743 2.709122 1.169009
C -0.403485 0.256220 0.314247
C -1.347562 -0.544269 1.004973
C -1.776483 -0.166103 2.326985
N -2.122246 0.136274 3.393972
C -1.892819 -1.703364 0.420409
C -1.508107 -2.074765 -0.865980
C -0.586857 -1.293891 -1.569832
C -0.035467 -0.143263 -0.986345
S 1.077307 0.882529 -1.963445
C 2.710803 0.254012 -1.421450
H 1.773983 2.339486 1.839270
H -1.406329 2.671364 0.865642
H -2.616735 -2.299494 0.980092
H -1.931711 -2.970972 -1.326026
H -0.290456 -1.567556 -2.585275
H 2.851232 0.437173 -0.347599
H 3.457650 0.822370 -1.995584
H 2.816518 -0.815779 -1.653498