28
Extracted from mol_1072.out
O -3.479419 -1.032340 1.382771
B -2.619498 -0.873325 0.331581
O -3.008297 -0.542783 -0.937813
C -1.107157 -1.280140 0.561689
C -0.821408 -2.625178 0.841015
C 0.494690 -3.071055 0.990932
C 1.554375 -2.173685 0.863690
C 1.291904 -0.831965 0.589340
O 2.353429 0.050444 0.551118
C 2.886620 0.388808 -0.673360
O 2.617126 -0.194322 -1.683937
C 3.817882 1.558706 -0.523185
C -0.031310 -0.368964 0.441686
C -0.288054 1.082048 0.205195
O 0.476908 1.882682 -0.281414
O -1.524700 1.436945 0.628000
C -1.914986 2.785775 0.379607
H -4.406063 -0.838862 1.194245
H -3.947090 -0.350036 -1.050938
H -1.643571 -3.338559 0.943924
H 0.697587 -4.123353 1.207841
H 2.592064 -2.491643 0.981560
H 4.450964 1.446294 0.368892
H 4.429149 1.665006 -1.427794
H 3.197721 2.458853 -0.386623
H -1.930986 2.995221 -0.701231
H -1.217904 3.487952 0.861163
H -2.919976 2.897476 0.806529