24
Extracted from mol_1059.out
O -2.758762 -0.650065 -0.288317
B -1.838231 -1.414228 0.360032
O -2.281481 -2.518554 1.035137
C -0.300791 -1.051248 0.279492
C 0.663408 -2.077737 0.245849
C 2.027337 -1.801149 0.149534
C 2.464662 -0.470158 0.097337
C 3.916507 -0.161235 0.008076
O 4.381798 0.954082 -0.015173
C 1.528179 0.573495 0.137855
C 0.172224 0.275455 0.223585
O -0.746273 1.308040 0.332388
C -1.113865 1.992467 -0.801741
O -0.596954 1.818188 -1.868455
C -2.240095 2.938757 -0.487035
H -3.652954 -1.005383 -0.186084
H -1.595091 -2.979666 1.531470
H 0.336547 -3.122343 0.274421
H 2.757366 -2.615321 0.113825
H 4.579548 -1.065329 -0.035485
H 1.875548 1.607497 0.103320
H -2.404771 3.614148 -1.335358
H -2.025656 3.507734 0.429531
H -3.148198 2.342552 -0.304200