24
Extracted from mol_963.out
O -1.075841 3.145750 0.671142
B -1.535635 2.028729 0.031252
O -2.809351 2.029166 -0.442412
C -0.521993 0.812750 -0.110537
C -0.850498 -0.487446 -0.581025
S -2.515692 -0.954854 -1.098229
C -3.313097 -1.312302 0.514324
C 0.142972 -1.465150 -0.698143
C 1.471939 -1.199514 -0.352521
C 1.812063 0.073883 0.125837
O 3.061820 0.447410 0.494684
C 4.118250 -0.481691 0.401188
C 0.812388 1.055466 0.240642
H -1.750401 3.837617 0.692187
H -3.021864 1.191295 -0.902273
H -4.339619 -1.639160 0.290848
H -3.348536 -0.408992 1.139871
H -2.779439 -2.118410 1.037655
H -0.127578 -2.456430 -1.070257
H 2.219408 -1.986184 -0.460882
H 3.946168 -1.366845 1.040759
H 5.022857 0.036326 0.747869
H 4.277810 -0.821164 -0.638775
H 1.103870 2.039752 0.612208