22
Extracted from mol_1579.out
O 4.256217 0.039450 -1.214737
B 3.541403 0.350508 -0.106330
O 4.163264 1.012129 0.916723
C 1.988049 0.033799 -0.064046
C 1.094467 1.125016 -0.019380
C -0.289460 0.953063 -0.004213
C -0.824385 -0.342517 -0.018156
C -2.296334 -0.609961 -0.000481
O -2.790597 -1.713381 -0.003115
O -3.023521 0.523455 0.018967
C -4.441793 0.362552 0.034135
C 0.036900 -1.450011 -0.043711
C 1.417591 -1.252623 -0.067089
I 2.657401 -2.994546 -0.054120
H 5.187259 0.289902 -1.132901
H 3.593043 1.172150 1.678198
H 1.500137 2.141806 -0.008851
H -0.958518 1.814069 0.018931
H -4.762802 -0.194699 0.927708
H -4.864604 1.375015 0.043828
H -4.782692 -0.186068 -0.857304
H -0.401030 -2.449112 -0.042648