28
Extracted from mol_340.out
O 0.932717 3.198038 0.666190
B -0.004901 2.329902 0.172145
O -1.260804 2.733017 -0.200464
C 0.445131 0.828359 -0.009115
C 1.835411 0.625096 -0.135877
C 2.382022 -0.638458 -0.356441
C 3.864986 -0.822831 -0.545339
F 4.574149 0.223206 -0.086685
F 4.187363 -0.974184 -1.847475
F 4.314763 -1.923816 0.089174
C 1.530110 -1.745796 -0.439343
C 0.157022 -1.568579 -0.294638
C -0.414269 -0.300500 -0.078065
C -1.932328 -0.190418 0.065138
C -2.539346 -1.281775 0.963399
C -2.609771 -0.171285 -1.318603
H 0.666668 4.123494 0.720285
H -1.449765 3.671684 -0.078660
H 2.501629 1.485406 -0.056623
H 1.940963 -2.744892 -0.603802
H -0.488669 -2.447689 -0.347612
H -2.148519 0.775984 0.538823
H -2.037662 -1.326232 1.943480
H -2.479892 -2.284371 0.509001
H -3.607345 -1.073049 1.139584
H -3.701737 -0.055180 -1.214893
H -2.421123 -1.109295 -1.868067
H -2.236803 0.664164 -1.929832