30
Extracted from mol_611.out
O 5.199656 -0.009429 3.313138
B 4.768632 -0.681921 2.207232
O 5.663271 -1.553642 1.656950
C 3.327627 -0.465986 1.596958
C 3.073128 -0.624930 0.224698
C 1.802928 -0.427064 -0.324088
C 0.720313 -0.066961 0.495680
O -0.538742 0.140813 0.062480
C -0.843287 -0.013146 -1.324322
C -2.309437 0.267629 -1.529464
C -3.256574 -0.757272 -1.386716
C -4.619315 -0.493628 -1.546537
C -5.050263 0.801952 -1.850099
C -4.114163 1.831106 -1.992224
C -2.751984 1.563935 -1.830923
C 0.961650 0.092052 1.881327
Cl -0.361867 0.531298 2.929790
C 2.234776 -0.099434 2.408761
H 4.584018 0.671176 3.607088
H 5.282049 -2.085521 0.949659
H 3.889608 -0.893883 -0.453701
H 1.659425 -0.551770 -1.397732
H -0.228090 0.685401 -1.919790
H -0.597636 -1.041693 -1.645397
H -2.922495 -1.771142 -1.147120
H -5.347322 -1.301561 -1.434823
H -6.116169 1.009206 -1.977685
H -4.446000 2.845349 -2.229751
H -2.022015 2.371535 -1.939919
H 2.358278 0.027531 3.487977