21
Extracted from mol_1894.out
O 3.203236 -1.587626 -0.839619
B 2.724045 -0.416780 -0.340994
O 3.646946 0.462290 0.130621
C 1.166847 -0.094608 -0.310325
C 0.695615 1.221279 -0.468864
C -0.672473 1.480004 -0.447822
N -1.145170 2.874414 -0.629035
O -2.349313 3.063026 -0.620083
O -0.297031 3.738803 -0.772733
C -1.618639 0.472957 -0.260092
C -1.160963 -0.834058 -0.092799
C -2.134226 -1.968903 0.138030
F -1.921682 -2.971683 -0.733642
F -3.408235 -1.575567 0.005449
F -1.992863 -2.485705 1.371167
C 0.213180 -1.110473 -0.125681
H 2.538750 -2.140860 -1.264792
H 3.274443 1.238366 0.563764
H 1.375277 2.060928 -0.625943
H -2.679348 0.719784 -0.248782
H 0.541602 -2.145589 0.007924