28
Extracted from mol_12.out
O 4.001096 -1.088557 -0.727853
B 2.688813 -1.450650 -0.816810
O 2.403339 -2.673804 -1.364882
C 1.594459 -0.449971 -0.288382
C 0.220663 -0.737380 -0.360164
C -0.755256 0.157112 0.105470
C -2.243185 -0.165005 0.015000
C -2.715166 -0.311711 -1.442330
C -2.617933 -1.402067 0.850341
C -0.319739 1.369636 0.658179
C 1.042039 1.700434 0.755841
C 1.476356 3.002222 1.387213
C 1.982097 0.780611 0.274797
H 4.586161 -1.773269 -1.078604
H 1.462253 -2.879150 -1.399405
H -0.114729 -1.686068 -0.796619
H -2.780798 0.697049 0.447797
H -2.231446 -1.169900 -1.938608
H -3.804836 -0.475618 -1.486630
H -2.481492 0.588926 -2.031892
H -3.706863 -1.574934 0.827624
H -2.313151 -1.282735 1.902139
H -2.130618 -2.312875 0.463400
H -1.067490 2.082345 1.023284
H 2.442753 3.343473 0.984996
H 0.735549 3.800733 1.223496
H 1.599163 2.892257 2.479637
H 3.047958 1.018896 0.332965