28
Extracted from mol_478.out
O -4.471860 1.087909 1.722008
B -4.005912 0.328169 0.691249
O -4.952320 -0.355263 -0.012982
C -2.448606 0.220843 0.393100
C -1.588070 -0.095365 1.462748
C -0.212508 -0.245310 1.285148
C 0.384289 -0.072407 0.019256
C 1.850630 -0.234153 -0.174011
C 2.552575 0.568558 -1.093766
C 3.928602 0.416067 -1.275765
C 4.634504 -0.544051 -0.544030
C 3.951570 -1.350273 0.371777
C 2.575716 -1.196228 0.555140
C -0.460311 0.261546 -1.048651
C -1.845742 0.405622 -0.875975
C -2.653909 0.793098 -2.067342
O -2.199596 0.962143 -3.176900
H -3.781340 1.604493 2.153129
H -4.585143 -0.944108 -0.681484
H -2.003869 -0.237303 2.465554
H 0.414617 -0.479435 2.148952
H 2.018675 1.336790 -1.658168
H 4.453470 1.056227 -1.989893
H 5.711517 -0.664137 -0.687727
H 4.491686 -2.110859 0.942011
H 2.052299 -1.851243 1.256046
H -0.063111 0.407116 -2.055554
H -3.747854 0.931552 -1.876827