30
Extracted from mol_407.out
O -3.739629 2.057442 -0.991582
B -2.379845 2.013613 -0.932116
O -1.660272 3.073122 -1.409302
C -1.575634 0.792742 -0.333848
C -2.201649 -0.363400 0.189656
O -3.574794 -0.383372 0.167614
C -4.275735 -1.504121 0.667833
C -1.440792 -1.422858 0.700252
C -0.046234 -1.339999 0.695032
C 0.621949 -0.214156 0.186557
C 2.107313 -0.130543 0.183339
C 2.766263 1.093542 0.411142
C 4.160641 1.172971 0.409543
C 4.932968 0.029663 0.181674
C 4.295187 -1.193585 -0.046612
C 2.900627 -1.271582 -0.047168
C -0.173721 0.831100 -0.318686
H -4.112186 1.242104 -0.617221
H -2.240173 3.764844 -1.754359
H -4.028198 -2.422352 0.106697
H -5.345093 -1.286164 0.542742
H -4.066734 -1.669834 1.739328
H -1.916382 -2.312256 1.113942
H 0.528877 -2.166079 1.120799
H 2.177561 1.991482 0.613936
H 4.647165 2.134474 0.595781
H 6.024466 0.091765 0.180858
H 4.887263 -2.093354 -0.235891
H 2.417841 -2.229820 -0.255192
H 0.308949 1.714609 -0.742467