18
Extracted from mol_1457.out
O 2.334819 -0.771918 -1.434591
B 1.814458 -0.735119 -0.182060
O 2.558718 -1.176689 0.872649
C 0.261345 -0.363005 -0.062839
C -0.197162 0.956065 0.057349
N 0.817943 2.029795 0.138435
O 1.990413 1.680382 0.210114
O 0.439207 3.186024 0.140055
C -1.542525 1.320920 0.117923
C -2.501860 0.310438 0.061657
C -2.106158 -1.024797 -0.053908
C -0.743961 -1.341499 -0.115150
Cl -0.293431 -3.029687 -0.264390
H 3.266335 -1.032063 -1.430225
H 2.122165 -1.116483 1.729220
H -1.810012 2.373367 0.207078
H -3.564308 0.560280 0.108847
H -2.845983 -1.826010 -0.100162