22
Extracted from mol_1042.out
O 4.075717 0.406461 0.503436
B 3.083199 0.577279 -0.422360
O 3.241553 1.254948 -1.594199
C 1.711803 -0.147709 -0.123043
C 1.770202 -1.480493 0.329322
C 0.616124 -2.228353 0.568605
C -0.638152 -1.652040 0.373190
C -0.729535 -0.324986 -0.053178
O -1.958139 0.257008 -0.299992
C -2.868295 0.420322 0.714332
O -2.688569 0.038336 1.836336
C -4.081129 1.145820 0.193948
C 0.435812 0.420234 -0.292150
Br 0.227067 2.254094 -0.793117
H 4.927874 0.801389 0.280826
H 4.099454 1.677179 -1.725094
H 2.750771 -1.934034 0.493652
H 0.690706 -3.262998 0.912447
H -1.554176 -2.215931 0.555894
H -3.789396 2.159510 -0.123474
H -4.480421 0.630546 -0.692881
H -4.842468 1.203419 0.981115