30
Extracted from mol_507.out
O 3.802385 -1.281901 1.565867
B 2.484764 -1.411439 1.259165
O 1.858100 -2.590248 1.554255
C 1.599537 -0.278679 0.583547
C 2.085124 0.936338 0.042308
S 3.837783 1.383147 0.042192
C 4.446999 0.432386 -1.403043
C 1.198091 1.878765 -0.496606
C -0.174656 1.634698 -0.517503
C -0.697689 0.434629 -0.004064
C -2.160003 0.160043 -0.025154
C -2.962213 0.583133 -1.102613
C -4.335034 0.327105 -1.122349
C -4.939274 -0.357649 -0.063452
C -4.156707 -0.784919 1.013862
C -2.783744 -0.530033 1.032261
C 0.209922 -0.495644 0.533061
H 4.138501 -0.391372 1.338007
H 2.464868 -3.212398 1.977366
H 3.910846 0.731947 -2.314619
H 4.338508 -0.647921 -1.231936
H 5.513893 0.678242 -1.510074
H 1.593415 2.816812 -0.893755
H -0.847403 2.397217 -0.917677
H -2.500600 1.097722 -1.949094
H -4.934937 0.657871 -1.974640
H -6.013918 -0.557900 -0.078072
H -4.619244 -1.315138 1.850859
H -2.189068 -0.851287 1.890696
H -0.168244 -1.443526 0.921210