20
Extracted from mol_1426.out
O 3.395366 -1.111783 -0.765573
B 2.192346 -0.563048 -1.062491
O 1.838045 -0.571383 -2.381584
C 1.184893 0.013418 0.032026
C -0.199181 -0.091248 -0.230311
C -1.179270 0.363342 0.662891
S -2.931692 0.247580 0.400989
C -3.074916 -0.589140 -1.204249
C -0.761213 0.958169 1.868620
C 0.593403 1.073080 2.163159
C 1.546670 0.595755 1.257097
Cl 3.243987 0.764853 1.721439
H 3.627639 -1.021520 0.168084
H 1.028809 -0.081469 -2.562623
H -0.506213 -0.567085 -1.163836
H -4.154544 -0.695732 -1.381994
H -2.641150 0.009205 -2.019849
H -2.618822 -1.590368 -1.185162
H -1.501830 1.327309 2.583353
H 0.917676 1.530064 3.100012