16
Extracted from mol_1272.out
O -2.753128 1.181923 -0.222259
B -2.047938 0.018112 -0.178733
O -2.725490 -1.163332 -0.140932
C -0.467090 -0.061032 -0.168494
C 0.184061 -1.309086 -0.120017
C 1.576347 -1.407326 -0.109514
C 2.362807 -0.251854 -0.147512
C 1.747366 1.001905 -0.196303
Br 2.782500 2.593346 -0.250710
C 0.351576 1.073939 -0.205793
F -0.224150 2.297613 -0.253906
H -2.186461 1.964389 -0.247083
H -3.682649 -1.027878 -0.150168
H -0.430874 -2.211255 -0.090459
H 2.060273 -2.386338 -0.071702
H 3.452850 -0.313124 -0.140062