32
Extracted from mol_484.out
O -4.134808 -1.277912 -1.382172
B -3.462300 -0.997327 -0.222572
O -4.162285 -0.487621 0.827825
C -1.960682 -1.460982 0.020650
C -1.694448 -2.822896 0.226111
C -0.394378 -3.265988 0.480919
C 0.660791 -2.354277 0.499028
C 0.446158 -0.981606 0.279658
C 1.643142 -0.090980 0.213153
C 1.923102 0.661078 -0.941872
C 3.074430 1.446774 -1.022402
C 3.969311 1.497317 0.052082
C 3.705117 0.750738 1.203810
C 2.555094 -0.040341 1.281027
C -0.884438 -0.544262 0.065513
C -1.284106 0.888242 -0.109739
O -2.258696 1.222344 -0.753670
O -0.514778 1.761111 0.549733
C -0.865085 3.139976 0.428945
H -3.561018 -1.590946 -2.090588
H -5.066526 -0.259085 0.571590
H -2.514752 -3.546735 0.200830
H -0.197565 -4.328494 0.649464
H 1.683249 -2.708346 0.652708
H 1.236686 0.615942 -1.791969
H 3.277969 2.018180 -1.932316
H 4.870498 2.113153 -0.010687
H 4.397111 0.784418 2.049872
H 2.349787 -0.614540 2.188345
H -0.137897 3.692214 1.036851
H -1.887711 3.314905 0.796090
H -0.810969 3.465946 -0.621208