20
Extracted from mol_1522.out
O -3.980250 -0.628143 0.153034
B -2.749987 -0.924803 0.671998
O -2.677336 -1.858013 1.660727
C -1.408904 -0.251318 0.182997
C -0.176891 -0.767893 0.608519
C 1.042470 -0.204047 0.188743
S 2.522765 -0.969014 0.803291
C 3.857491 0.021977 0.072045
C 1.025837 0.905649 -0.671700
C -0.203871 1.423316 -1.089497
Br -0.216676 2.939355 -2.255984
C -1.411558 0.864561 -0.677765
H -3.965585 -0.001118 -0.579023
H -3.544783 -2.224338 1.879455
H -0.169662 -1.628830 1.281866
H 3.816085 1.070901 0.402487
H 3.850067 -0.028441 -1.027286
H 4.790722 -0.427892 0.440006
H 1.945687 1.373375 -1.019874
H -2.345622 1.314717 -1.024038