32
Extracted from mol_488.out
O 3.843351 2.755340 -0.672469
B 2.684642 2.926128 -0.010581
O 2.545882 4.100940 0.683395
C 1.447428 1.897678 -0.027100
C 0.169151 2.484394 0.068550
C -1.012950 1.745932 0.095736
C -0.982647 0.342360 0.050742
C -2.229516 -0.467311 0.095083
C -3.403652 -0.023578 -0.543201
C -4.574949 -0.783011 -0.501851
C -4.599707 -2.003237 0.180579
C -3.442014 -2.457302 0.820208
C -2.270357 -1.698579 0.777217
C 0.277591 -0.266988 -0.044345
C 1.468272 0.477099 -0.107176
C 2.735734 -0.294188 -0.310114
O 3.750574 0.126132 -0.836739
O 2.649450 -1.561087 0.118124
C 3.794161 -2.391014 -0.097036
H 3.926265 1.843741 -1.015429
H 1.742094 4.145127 1.211233
H 0.089875 3.574761 0.114814
H -1.969518 2.267578 0.180001
H -3.392993 0.916026 -1.101150
H -5.471679 -0.422447 -1.013046
H -5.516637 -2.597494 0.213681
H -3.452486 -3.405968 1.363720
H -1.380447 -2.054598 1.302215
H 0.342592 -1.352980 -0.106434
H 4.020239 -2.472747 -1.171034
H 4.675443 -1.976901 0.415143
H 3.536806 -3.373807 0.316618