19
Extracted from mol_78.out
O 2.421950 0.980478 0.975739
B 1.964093 -0.075441 0.246863
O 2.897314 -0.930434 -0.279502
C 0.413467 -0.306444 0.054535
C -0.033214 -1.637709 -0.056384
C -1.383860 -1.929490 -0.217584
F -1.774455 -3.211900 -0.311919
C -2.332070 -0.915672 -0.284421
C -1.897981 0.408673 -0.179972
C -0.544765 0.740547 -0.004468
C -0.152173 2.196582 0.109256
H 3.388304 0.986182 1.022800
H 2.522242 -1.612015 -0.849594
H 0.663542 -2.479488 0.003030
H -3.386881 -1.166854 -0.415773
H -2.639430 1.210963 -0.235854
H 0.254640 2.425289 1.106532
H 0.636373 2.464566 -0.611805
H -1.017094 2.852166 -0.071480