24
Extracted from mol_1829.out
O -2.384565 2.115160 0.724765
B -1.303513 1.884436 -0.088383
O -0.898727 2.918047 -0.884442
C -0.535190 0.509453 -0.010670
C -1.146685 -0.776438 -0.019707
B -2.710139 -1.051881 -0.216539
O -3.692531 -0.237102 0.229163
O -3.119610 -2.188077 -0.861453
C -0.309737 -1.901049 0.134034
C 1.070629 -1.792263 0.291636
C 1.681193 -0.532527 0.261180
C 3.178974 -0.478682 0.439007
O 3.803857 -1.429563 0.876284
N 3.791719 0.699319 0.099638
C 0.866328 0.598577 0.108975
H -2.767352 2.995401 0.594697
H -0.181358 2.684057 -1.485313
H -3.368430 0.570290 0.662089
H -2.392020 -2.697919 -1.233477
H -0.754957 -2.901319 0.153865
H 1.701207 -2.671355 0.440921
H 3.339474 1.381631 -0.493313
H 4.804689 0.709803 0.141616
H 1.326745 1.592000 0.135425