17
Extracted from mol_1347.out
O -2.965773 1.574617 -0.289342
B -2.405347 0.337143 -0.361654
O -3.262127 -0.706387 -0.527041
C -0.833857 0.125448 -0.259258
C 0.067469 1.064153 -0.802003
C 1.445870 0.881208 -0.720283
C 1.975619 -0.253763 -0.075452
C 3.389967 -0.462079 0.027677
N 4.538484 -0.614270 0.100903
C 1.076041 -1.186515 0.469801
F 1.559134 -2.264075 1.087770
C -0.300006 -1.009009 0.377542
H -2.338074 2.273788 -0.074809
H -2.824349 -1.552291 -0.674089
H -0.314476 1.950958 -1.316163
H 2.133370 1.610483 -1.153622
H -0.941944 -1.769406 0.830913