25
Extracted from mol_296.out
O 4.104617 -0.473052 1.653693
B 3.603795 0.086077 0.513931
O 4.340922 0.805381 -0.381420
C 2.050336 -0.047362 0.250153
C 1.167771 0.919704 0.771128
C -0.210540 0.852124 0.568757
C -0.779349 -0.196889 -0.171987
C -2.282855 -0.290792 -0.404821
C -2.815292 0.909117 -1.207905
C -3.056788 -0.471227 0.913060
C 0.082524 -1.170342 -0.698669
C 1.461417 -1.084144 -0.484451
I 2.694728 -2.621331 -1.329674
H 5.056295 -0.377386 1.786188
H 5.286686 0.865066 -0.196107
H 1.576421 1.751448 1.353724
H -0.849739 1.629925 0.995664
H -2.454258 -1.196042 -1.013285
H -2.287949 1.013465 -2.169261
H -3.890932 0.789888 -1.419213
H -2.688565 1.853351 -0.652532
H -4.133959 -0.602923 0.717350
H -2.943921 0.407112 1.570316
H -2.700611 -1.352555 1.469526
H -0.330754 -1.998613 -1.278810