24
Extracted from mol_1866.out
O -3.126892 0.913010 -0.191913
B -2.586674 -0.204586 0.370007
O -3.334173 -0.886421 1.292807
C -1.178225 -0.719928 -0.139282
C -1.084602 -1.857777 -0.962091
C 0.152855 -2.314331 -1.423426
C 1.321481 -1.635693 -1.067965
C 1.277226 -0.493350 -0.247242
B 2.607734 0.272786 0.141786
O 2.883605 1.467727 -0.451950
O 3.545752 -0.257918 0.986522
C 0.016971 -0.060061 0.213969
S -0.058544 1.311818 1.387195
C -0.238850 2.744173 0.260201
H -3.989351 1.124600 0.192705
H -2.878802 -1.653646 1.658853
H -1.994502 -2.394272 -1.250893
H 0.206447 -3.199649 -2.063367
H 2.285375 -1.999373 -1.439309
H 3.723760 1.834719 -0.142156
H 3.271392 -1.093722 1.381718
H -1.167911 2.650171 -0.318820
H 0.639154 2.816378 -0.396395
H -0.293224 3.635345 0.903444