35
Extracted from mol_202.out
O -3.208874 1.464267 -0.311933
B -2.469414 1.764436 0.788624
O -3.134536 2.211566 1.903922
C -0.892177 1.684247 0.745615
C -0.175661 2.790810 1.235905
C 1.218508 2.828544 1.184021
C 1.911711 1.741447 0.656591
C 1.242582 0.603552 0.171438
C 2.067510 -0.574031 -0.347540
C 2.910805 -0.189616 -1.576489
C 2.942896 -1.187425 0.760764
C -0.172908 0.582860 0.210698
C -0.939096 -0.615625 -0.267947
C -1.548577 -1.480944 0.656182
C -2.281586 -2.591792 0.225997
C -2.421227 -2.853676 -1.139562
C -1.823500 -1.997083 -2.070312
C -1.090526 -0.889194 -1.638103
H -4.156161 1.572983 -0.149230
H -2.549791 2.362719 2.656072
H -0.719131 3.650039 1.643442
H 1.763492 3.701605 1.553920
H 3.004579 1.771379 0.628437
H 1.364855 -1.356336 -0.668449
H 2.280837 0.209365 -2.387544
H 3.663133 0.578736 -1.331384
H 3.450587 -1.068296 -1.967134
H 3.482703 -2.071644 0.382785
H 3.696328 -0.472492 1.131795
H 2.332852 -1.506052 1.621047
H -1.438478 -1.283631 1.726397
H -2.743705 -3.255338 0.962311
H -2.994648 -3.720842 -1.478327
H -1.934143 -2.189487 -3.141175
H -0.639239 -0.215054 -2.370836