26
Extracted from mol_442.out
O -0.719529 -2.504008 -0.016928
B -1.681236 -1.599066 -0.360121
O -2.840436 -2.081392 -0.896160
C -1.589675 -0.033580 -0.131456
C -2.815546 0.659499 -0.092961
C -2.869127 2.019216 0.212227
Cl -4.413627 2.843095 0.254780
C -1.699505 2.730420 0.489277
C -0.477122 2.060766 0.441399
C -0.396677 0.692046 0.126398
C 0.961944 0.072151 0.053074
C 1.414294 -0.552062 -1.126391
C 2.701175 -1.091119 -1.204361
C 3.563956 -1.017192 -0.105917
C 3.131207 -0.398353 1.071025
C 1.844667 0.143003 1.148624
H 0.093816 -2.106236 0.320099
H -2.824968 -3.045648 -0.964114
H -3.741174 0.117553 -0.292826
H -1.747686 3.794701 0.727506
H 0.442945 2.619899 0.630532
H 0.751806 -0.599382 -1.994370
H 3.033434 -1.565536 -2.131628
H 4.570413 -1.439333 -0.167651
H 3.797273 -0.338589 1.936031
H 1.509377 0.619148 2.073912