22
Extracted from mol_988.out
O 2.564498 1.933213 0.450405
B 1.230022 2.113997 0.304644
O 0.785919 3.402490 0.331654
C 0.220691 0.887938 0.118347
C -1.160717 1.108761 0.112609
C -2.070241 0.061669 -0.047390
N -3.513827 0.349470 -0.048005
O -3.859465 1.513353 0.091826
O -4.278042 -0.592919 -0.189216
C -1.634849 -1.252024 -0.205587
C -0.266612 -1.512753 -0.198734
C 0.650944 -0.459416 -0.034673
O 1.994097 -0.672541 -0.013639
C 2.524860 -1.977983 -0.178265
H 2.791769 0.993897 0.389982
H -0.158656 3.516564 0.187383
H -1.578861 2.109170 0.238074
H -2.367341 -2.049759 -0.329499
H 0.074488 -2.540354 -0.319446
H 2.194486 -2.652565 0.629776
H 3.616803 -1.873766 -0.136309
H 2.240033 -2.406446 -1.153941