23
Extracted from mol_1843.out
O -2.666891 2.107301 -0.737501
B -2.424339 0.764223 -0.799888
O -3.265643 -0.146559 -1.365882
C -1.026640 0.261707 -0.255420
C -0.862118 -0.779245 0.686790
C -2.057708 -1.472416 1.295002
F -3.063919 -0.603556 1.545718
F -1.753139 -2.062244 2.468022
F -2.561343 -2.433895 0.501230
C 0.418566 -1.173616 1.082501
C 1.556576 -0.562253 0.551853
C 1.419921 0.478690 -0.377727
S 2.768280 1.355130 -1.125794
C 4.242409 0.590541 -0.390611
C 0.124171 0.881082 -0.757122
H -3.507416 2.397737 -1.113207
H -4.115825 0.192346 -1.672031
H 0.534681 -1.965359 1.824996
H 2.539313 -0.900733 0.881542
H 4.314687 -0.479273 -0.638146
H 4.272888 0.728699 0.700720
H 5.098476 1.115650 -0.837951
H 0.015016 1.706044 -1.467094