26
Extracted from mol_1088.out
O -3.049998 -2.064798 -0.879123
B -2.426929 -0.868994 -0.646163
O -3.100507 0.281532 -0.329436
C -0.864849 -0.839485 -0.833136
C -0.264511 -1.790682 -1.682514
C 1.110682 -1.793917 -1.907769
C 1.932064 -0.853865 -1.278510
C 1.377999 0.094591 -0.406673
S 2.300713 1.333882 0.477618
C 4.020449 0.934956 0.048238
C -0.017513 0.084238 -0.205077
O -0.501081 1.082715 0.630345
C -1.174871 0.778981 1.780049
O -1.390679 -0.341107 2.155211
C -1.596355 2.048400 2.471072
H -4.008727 -2.064984 -0.774189
H -4.054501 0.180526 -0.224843
H -0.899772 -2.533458 -2.169879
H 1.556952 -2.533457 -2.578012
H 3.005967 -0.870955 -1.467547
H 4.633341 1.659136 0.604184
H 4.218160 1.060024 -1.027279
H 4.297199 -0.081793 0.366077
H -2.312519 2.581655 1.826252
H -0.728366 2.708900 2.616739
H -2.062354 1.807959 3.434366