16
Extracted from mol_1281.out
O 2.937959 -0.746516 0.315241
B 2.033625 0.080282 -0.294095
O 2.507056 1.035009 -1.141721
C 0.476779 -0.003327 -0.067241
C -0.134188 -1.054522 0.641368
C -1.515719 -1.104165 0.830538
C -2.312544 -0.087549 0.307357
F -3.632017 -0.134154 0.491554
C -1.737685 0.972288 -0.405425
Br -2.853038 2.339823 -1.106905
C -0.354812 1.006093 -0.589748
H 2.554717 -1.369362 0.942925
H 3.471401 1.022423 -1.205978
H 0.468352 -1.870066 1.055447
H -1.998302 -1.917961 1.376375
H 0.088417 1.831704 -1.149689