21
Extracted from mol_1888.out
O -2.820638 -0.061710 1.875577
B -2.261563 0.167431 0.655958
O -3.055354 0.642819 -0.340198
C -0.730669 -0.251258 0.502495
C -0.373251 -1.464746 1.118223
C 0.916736 -1.983770 1.016280
C 1.890714 -1.288284 0.303703
C 1.572061 -0.065958 -0.296011
N 2.641831 0.707705 -0.892049
O 2.694589 0.521129 -2.309356
O 3.640000 -0.131855 -1.423989
C 0.268175 0.463741 -0.199116
C -0.119717 1.774477 -0.857182
F -0.928313 1.544667 -1.936591
F 0.906265 2.493123 -1.306353
F -0.821517 2.554484 -0.018408
H -3.758084 0.177886 1.886888
H -2.604847 0.814672 -1.176891
H -1.131225 -2.005234 1.689056
H 1.169550 -2.933310 1.494848
H 2.905257 -1.676010 0.213116