23
Extracted from mol_52.out
O 3.850986 0.129676 -0.026962
B 2.868939 -0.825929 0.014989
O 3.123035 -2.164680 0.158712
C 1.375735 -0.360726 -0.107966
C 0.334982 -1.299148 -0.075219
C -1.001998 -0.890692 -0.186519
O -1.937932 -1.879436 -0.146074
C -3.300648 -1.546516 -0.254093
C -1.302312 0.472824 -0.331390
C -0.274043 1.431078 -0.364938
C -0.599525 2.900852 -0.503768
C 1.054002 1.002979 -0.254510
H 4.755121 -0.196311 0.051821
H 4.052756 -2.409653 0.232628
H 0.544275 -2.365155 0.035473
H -3.533610 -1.054871 -1.217240
H -3.633714 -0.884522 0.567116
H -3.861010 -2.490259 -0.195568
H -2.337224 0.807483 -0.420591
H 0.009010 3.373385 -1.292278
H -1.659748 3.064031 -0.750955
H -0.388960 3.446170 0.432826
H 1.861883 1.739419 -0.282779