26
Extracted from mol_1096.out
O -3.815679 -1.392907 0.667971
B -2.749627 -1.858933 -0.033555
O -2.927163 -2.940616 -0.851496
C -1.288253 -1.242216 0.021215
C -0.260463 -1.951141 -0.634593
C 1.062658 -1.514309 -0.640505
C 1.397374 -0.331873 0.022813
O 2.740388 0.009537 0.029203
C 3.178446 1.299633 -0.107503
O 2.453860 2.246525 -0.244053
C 4.684756 1.330594 -0.066599
C 0.414947 0.405921 0.689296
C -0.912005 -0.046525 0.678963
S -2.095962 0.979448 1.588535
C -2.798646 1.982208 0.224032
H -3.566040 -0.639852 1.241153
H -3.838537 -3.260340 -0.813765
H -0.519571 -2.876758 -1.153354
H 1.848011 -2.078464 -1.148253
H 5.032548 2.366257 -0.160731
H 5.043179 0.892629 0.878001
H 5.094717 0.717500 -0.884322
H 0.668250 1.330025 1.204993
H -3.512307 2.679799 0.686750
H -2.005913 2.551985 -0.280915
H -3.328966 1.341872 -0.495004