30
Extracted from mol_406.out
O -2.376070 -3.015139 1.248606
B -2.818774 -1.753372 0.986310
O -4.132729 -1.467443 1.253825
C -1.803321 -0.699466 0.405620
C -2.251877 0.494716 -0.196097
C -1.333238 1.420842 -0.707242
O -1.669720 2.595443 -1.304544
C -3.028874 2.938913 -1.437771
C 0.042801 1.158990 -0.610032
C 0.515616 -0.019805 -0.018716
C 1.977655 -0.288816 0.073277
C 2.855375 0.099180 -0.957208
C 4.226070 -0.154203 -0.869517
C 4.752958 -0.801626 0.252395
C 3.894818 -1.193727 1.284489
C 2.524062 -0.941014 1.195317
C -0.425116 -0.943289 0.480937
H -3.071494 -3.570334 1.626248
H -4.361583 -0.539280 1.129581
H -3.323072 0.691024 -0.284060
H -3.530949 3.029693 -0.456447
H -3.058523 3.915295 -1.940795
H -3.583294 2.205161 -2.051811
H 0.730113 1.916026 -0.992548
H 2.454858 0.584517 -1.850617
H 4.885649 0.149264 -1.687236
H 5.825864 -1.000190 0.321483
H 4.295721 -1.694527 2.170095
H 1.868444 -1.234054 2.018728
H -0.081371 -1.882779 0.917730