33
Extracted from mol_28.out
O 5.055487 1.142130 0.519201
B 3.686213 1.173483 0.508401
O 3.092429 2.299131 1.008392
C 2.742007 0.026066 -0.029544
C 1.354863 0.275483 0.061698
C 0.407619 -0.656361 -0.378630
O -0.940164 -0.482245 -0.320911
C -1.463371 0.722146 0.228761
C -2.969218 0.657739 0.179044
C -3.668509 1.143072 -0.935744
C -5.061956 1.053622 -0.997758
C -5.773220 0.472672 0.056968
C -5.085556 -0.017341 1.172060
C -3.692371 0.074660 1.230199
C 0.853094 -1.870123 -0.925345
C 2.216826 -2.126595 -1.019895
C 3.181764 -1.202284 -0.582093
C 4.645798 -1.568109 -0.723778
H 5.431679 0.332952 0.158453
H 3.749633 2.940019 1.310224
H 1.040055 1.226692 0.489962
H -1.095101 1.591247 -0.346756
H -1.116702 0.841437 1.271852
H -3.114104 1.596237 -1.762939
H -5.594488 1.439219 -1.871414
H -6.863513 0.403949 0.011181
H -5.636776 -0.471558 1.999941
H -3.156558 -0.310736 2.102729
H 0.111435 -2.595106 -1.268252
H 2.545352 -3.078374 -1.448605
H 5.191546 -0.862893 -1.376817
H 4.762948 -2.564254 -1.175422
H 5.162858 -1.605977 0.252428