23
Extracted from mol_1109.out
O -1.612101 -2.674904 -0.571428
B -0.637057 -1.945104 0.045387
O 0.483727 -2.486293 0.613759
C -0.897278 -0.395141 0.176535
C -2.226448 0.065783 0.242889
C -2.543193 1.412986 0.402583
C -1.506498 2.359796 0.487369
C -1.806384 3.754970 0.659109
N -2.050947 4.881739 0.798061
C -0.170273 1.935748 0.397259
C 0.115460 0.579703 0.245320
O 1.464154 0.258791 0.210851
C 1.991687 -0.466803 -0.821070
O 1.355175 -0.839195 -1.769381
C 3.453277 -0.723752 -0.573394
H -1.453012 -3.623874 -0.640048
H 0.582869 -3.440172 0.504927
H -3.033991 -0.666334 0.170038
H -3.583175 1.739303 0.461650
H 0.650479 2.652553 0.446791
H 3.970841 0.206552 -0.296720
H 3.906776 -1.168157 -1.467632
H 3.545914 -1.418199 0.277148