26
Extracted from mol_1132.out
O -2.028737 -3.094191 0.855259
B -2.445592 -1.810393 0.632575
O -3.750968 -1.403083 0.724980
C -1.366770 -0.739381 0.244850
C -1.731868 0.587327 -0.044949
C -0.791832 1.568893 -0.402086
B -1.206972 3.051932 -0.727423
O -0.257324 3.903061 -1.210857
O -2.473659 3.539168 -0.546978
C 0.561166 1.186791 -0.460922
C 0.942014 -0.122852 -0.171188
O 2.292855 -0.428398 -0.315621
C 2.985029 -1.075141 0.668303
O 2.504635 -1.427887 1.710488
C 4.420641 -1.262175 0.244419
C -0.005856 -1.087179 0.177254
H -2.712442 -3.726973 1.104155
H -4.388984 -2.086719 0.960839
H -2.797069 0.838443 0.006668
H -0.612606 4.788744 -1.364439
H -3.087293 2.898973 -0.167887
H 1.328271 1.912797 -0.739078
H 4.462578 -1.824018 -0.701645
H 4.968454 -1.798045 1.028895
H 4.886858 -0.281758 0.059636
H 0.305469 -2.107934 0.400399