16
Extracted from mol_1379.out
O -2.845299 -1.080293 -0.115363
B -2.087608 0.055258 -0.035927
O -2.730889 1.253738 0.026642
C -0.510708 0.063039 -0.006854
C 0.189004 1.259236 0.242961
C 1.582062 1.289563 0.277877
C 2.320430 0.119650 0.057985
Br 4.216480 0.204787 0.112847
C 1.645788 -1.085400 -0.198662
Cl 2.503903 -2.574693 -0.486641
C 0.246667 -1.097954 -0.227012
H -2.344741 -1.903916 -0.113925
H -3.692207 1.151798 0.015945
H -0.372747 2.180567 0.412872
H 2.113505 2.222571 0.475255
H -0.233639 -2.057947 -0.438001