25
Extracted from mol_1188.out
O 4.194537 1.102609 -0.683957
B 3.502071 -0.061555 -0.479476
O 4.190085 -1.232180 -0.596992
C 1.953988 -0.060774 -0.168279
C 1.153252 0.910441 -0.801768
C -0.229055 0.993702 -0.632723
C -0.876914 0.077667 0.219556
N -2.261096 0.081773 0.455869
C -3.228161 0.940064 -0.037328
O -2.989411 1.865306 -0.788740
C -4.635101 0.612945 0.441878
C -0.103214 -0.892194 0.871740
C 1.281330 -0.971358 0.685600
C 2.003145 -2.027951 1.458903
O 1.446729 -2.810072 2.200292
H 3.674442 1.898050 -0.518714
H 5.123609 -1.081342 -0.803082
H 1.619571 1.630203 -1.483113
H -0.816171 1.751786 -1.146245
H -2.584704 -0.648419 1.080651
H -5.317808 1.385879 0.068871
H -4.959269 -0.368770 0.057762
H -4.687899 0.579338 1.542578
H -0.560487 -1.616441 1.552707
H 3.106530 -2.058707 1.317979