20
Extracted from mol_1525.out
O -3.104172 1.665261 -0.819490
B -2.795276 0.488253 -0.194809
O -3.779404 -0.145584 0.502200
C -1.369186 -0.181133 -0.236492
C -1.168655 -1.464117 0.306039
C 0.082945 -2.078289 0.271205
C 1.169990 -1.417483 -0.312613
Br 2.842259 -2.333039 -0.363169
C 1.023326 -0.122682 -0.849746
S 2.335473 0.778348 -1.669781
C 3.369652 1.302414 -0.253675
C -0.253894 0.461003 -0.798394
H -2.383202 2.051875 -1.329416
H -4.618905 0.331934 0.460306
H -2.011857 -1.989987 0.760718
H 0.223230 -3.077415 0.688203
H 4.190262 1.893968 -0.686260
H 3.791471 0.435351 0.274207
H 2.797532 1.933328 0.441967
H -0.341589 1.467992 -1.219610