23
Extracted from mol_1802.out
O -3.635802 -0.169971 -0.566302
B -2.788655 0.513742 0.249474
O -3.322060 1.402525 1.132750
C -1.199825 0.426005 0.218464
C -0.500182 1.619942 0.480149
C 0.892271 1.684897 0.454217
C 1.647417 0.543441 0.159688
C 3.152112 0.675873 0.160120
O 3.705296 1.627718 0.682551
N 3.849535 -0.334588 -0.444218
C 0.977306 -0.664702 -0.074040
C -0.420164 -0.723752 -0.051356
C -1.077293 -2.063475 -0.289861
F -0.197417 -3.068717 -0.383246
F -1.782604 -2.070558 -1.463582
F -1.953445 -2.382416 0.675265
H -3.209474 -0.786397 -1.175251
H -4.287052 1.429515 1.070213
H -1.074390 2.517959 0.718570
H 1.423360 2.614891 0.667834
H 3.408272 -0.987551 -1.077515
H 4.854864 -0.219858 -0.507248
H 1.537927 -1.584522 -0.243389