18
Extracted from mol_1399.out
O -3.401088 -0.501839 0.880568
B -2.639382 -0.024570 -0.141398
O -3.311267 0.425906 -1.235827
C -1.053355 0.005513 -0.064073
C -0.307846 1.047001 -0.655522
C 1.080390 1.066691 -0.578972
C 1.787328 0.043789 0.079051
C 3.276688 0.123467 0.118701
O 3.905118 1.026050 -0.386351
C 1.047549 -1.000216 0.665154
Cl 1.842749 -2.321272 1.499479
C -0.348554 -1.014076 0.598481
H -2.895545 -0.719434 1.671738
H -2.735704 0.667185 -1.970340
H -0.824835 1.863714 -1.168991
H 1.669370 1.872723 -1.023989
H 3.788684 -0.711464 0.650125
H -0.880300 -1.849168 1.062166