19
Extracted from mol_76.out
O 2.567014 0.849774 -0.913297
B 2.000680 -0.114187 -0.133781
O 2.846052 -0.916036 0.588852
C 0.435642 -0.328545 -0.105592
C -0.028995 -1.661733 -0.056478
C -1.389227 -1.972252 -0.044652
C -2.328808 -0.939197 -0.067214
C -1.870591 0.373025 -0.107389
F -2.780410 1.366682 -0.121437
C -0.512754 0.723054 -0.133745
C -0.161935 2.190886 -0.163980
H 3.531770 0.847449 -0.838358
H 2.383966 -1.532003 1.170035
H 0.695869 -2.482308 -0.050676
H -1.721185 -3.013351 -0.019529
H -3.404388 -1.128498 -0.054237
H -0.567347 2.706075 0.723222
H -0.616118 2.681592 -1.040784
H 0.920765 2.349570 -0.207819