34
Extracted from mol_707.out
O -2.476551 2.566082 -1.715886
B -3.248589 1.501948 -1.322380
O -4.542440 1.483769 -1.725648
C -2.514209 0.389540 -0.449955
C -3.143169 -0.604797 0.352537
B -4.684712 -0.826314 0.544942
O -5.229118 -1.257107 1.723760
O -5.578932 -0.649819 -0.490543
C -2.309659 -1.494306 1.072031
C -0.923206 -1.442753 1.011080
C -0.305468 -0.457199 0.224012
O 1.050111 -0.460349 0.217258
C 1.751806 0.507895 -0.560490
C 3.231792 0.271038 -0.397588
C 3.913209 -0.602142 -1.258377
C 5.278245 -0.849086 -1.088746
C 5.978346 -0.225134 -0.051143
C 5.308162 0.645608 0.814218
C 3.943120 0.889932 0.641014
C -1.105952 0.448592 -0.486186
H -2.992569 3.175264 -2.260694
H -5.039322 0.693052 -1.440995
H -4.589612 -1.302872 2.444766
H -6.491386 -0.821136 -0.215837
H -2.762742 -2.278485 1.689010
H -0.295836 -2.149021 1.559477
H 1.460242 0.417301 -1.622428
H 1.482835 1.525301 -0.223618
H 3.367500 -1.092354 -2.070081
H 5.797680 -1.529315 -1.769142
H 7.046918 -0.415317 0.081390
H 5.851155 1.137169 1.625986
H 3.421017 1.570822 1.319787
H -0.648669 1.234197 -1.086587