19
Extracted from mol_113.out
O -2.599267 1.569950 1.186491
B -2.428599 0.720683 0.131358
O -3.460674 0.654913 -0.746580
C -1.045176 -0.051925 -0.048163
C -0.853484 -1.373871 -0.491467
I -2.509198 -2.649461 -0.986901
C 0.419206 -1.936180 -0.614733
C 1.547289 -1.169512 -0.310477
C 1.422023 0.157314 0.121921
C 2.632267 1.007443 0.423187
C 0.125922 0.678007 0.249502
H -1.876562 1.532037 1.822691
H -3.326445 0.016289 -1.458386
H 0.539215 -2.969430 -0.945804
H 2.539484 -1.618836 -0.413785
H 2.819128 1.732848 -0.387962
H 3.539841 0.395367 0.534286
H 2.497315 1.588785 1.349484
H 0.017715 1.715577 0.585339