22
Extracted from mol_1501.out
O -4.565922 -0.194315 0.553757
B -3.621327 0.663006 0.077522
O -4.077558 1.844736 -0.421300
C -2.076186 0.302146 0.104434
C -1.515773 -0.478050 1.132991
C -0.158950 -0.781454 1.140194
C 0.710695 -0.323207 0.131245
C 2.146602 -0.737410 0.308172
O 2.477367 -1.668861 1.006286
O 3.020645 0.044145 -0.333025
C 4.400595 -0.299828 -0.198784
C 0.152304 0.442470 -0.913970
Br 1.133331 1.075381 -2.426717
C -1.215569 0.745254 -0.912850
H -4.210958 -1.053200 0.809195
H -3.375005 2.460272 -0.658981
H -2.143937 -0.843928 1.951223
H 0.276680 -1.388457 1.936200
H 4.715954 -0.238752 0.854066
H 4.584599 -1.323556 -0.558546
H 4.953904 0.425942 -0.807393
H -1.611490 1.327666 -1.748754