23
Extracted from mol_967.out
O -3.456671 -0.313790 0.072580
B -2.478193 -1.196600 0.408728
O -2.821883 -2.446260 0.837026
C -0.934521 -0.855933 0.330157
C 0.008293 -1.827046 0.696054
C 1.385903 -1.589398 0.649232
C 1.840787 -0.342093 0.223390
C 3.315949 -0.032004 0.143010
F 3.694940 0.233504 -1.123424
F 4.077565 -1.044697 0.583848
F 3.631536 1.056880 0.872680
C 0.934668 0.660548 -0.151495
C -0.438357 0.401535 -0.097216
O -1.373457 1.339064 -0.449747
C -0.964990 2.623658 -0.882150
H -3.063929 0.527423 -0.212668
H -3.781163 -2.563783 0.851535
H -0.359122 -2.800805 1.028467
H 2.097239 -2.363104 0.940349
H 1.316738 1.627220 -0.477650
H -0.352972 2.566901 -1.798986
H -1.882948 3.186295 -1.098398
H -0.395415 3.152483 -0.098359