20
Extracted from mol_1323.out
O -3.343659 -0.294348 2.021941
B -3.041871 -0.393047 0.694074
O -4.095878 -0.583291 -0.140785
C -1.545200 -0.282303 0.172197
C -0.478778 0.088324 1.013123
C 0.842920 0.196084 0.577414
C 1.160959 -0.071706 -0.765861
S 2.786091 0.020138 -1.463369
C 3.832586 0.505140 -0.060287
C 0.123925 -0.440091 -1.642796
C -1.172274 -0.528818 -1.158198
F -2.131229 -0.880815 -2.053102
H -2.577041 -0.216224 2.598455
H -3.824651 -0.666792 -1.063233
H -0.680880 0.316689 2.065346
H 1.614087 0.491439 1.288773
H 4.852551 0.564019 -0.466212
H 3.812970 -0.247820 0.741611
H 3.551506 1.491712 0.337262
H 0.313868 -0.656515 -2.696350