28
Extracted from mol_1004.out
O -0.758542 3.142900 0.271109
B -1.336801 1.942985 -0.039890
O -2.645759 1.952049 -0.421280
C -0.518613 0.592209 -0.005129
C 0.875524 0.639598 -0.208922
C 1.643529 -0.528074 -0.191295
O 3.011369 -0.591028 -0.423186
C 3.880489 0.448288 -0.290650
O 3.570478 1.567428 0.024514
C 5.280938 -0.019625 -0.598589
C 1.033243 -1.767927 0.030161
C -0.342135 -1.834810 0.236545
C -1.103823 -0.664532 0.217254
O -2.460738 -0.740045 0.499381
C -3.331180 -1.058789 -0.511472
O -2.974574 -1.417716 -1.598512
C -4.749848 -0.870313 -0.046379
H 0.148884 3.075646 0.592555
H -3.002859 2.851224 -0.425117
H 1.370798 1.590961 -0.390078
H 5.321775 -0.437908 -1.616425
H 5.569729 -0.824708 0.095134
H 5.976305 0.823411 -0.507817
H 1.650574 -2.668643 0.034196
H -0.833460 -2.792712 0.416848
H -5.441408 -1.319251 -0.769772
H -4.894301 -1.302856 0.954475
H -4.939596 0.212241 0.028023