19
Extracted from mol_1913.out
O -2.542281 1.044899 1.201990
B -2.011591 0.351234 0.177238
O -2.877156 -0.125814 -0.752933
C -0.429713 0.019802 0.054730
C 0.641931 0.928954 0.143684
N 0.425601 2.366695 0.446693
O 1.133993 3.168995 -0.128584
O -0.415090 2.662238 1.287363
C 1.983582 0.580390 -0.041746
C 2.320836 -0.749561 -0.277434
C 1.309998 -1.703340 -0.360421
C -0.037923 -1.322359 -0.215939
C -1.017953 -2.369931 -0.362473
N -1.762761 -3.249565 -0.503346
H -1.870115 1.527423 1.707102
H -2.512709 -0.698864 -1.435785
H 2.744902 1.359447 0.007798
H 3.366713 -1.038674 -0.399950
H 1.549736 -2.751972 -0.547987