33
Extracted from mol_27.out
O -5.785948 -0.554149 -0.210060
B -4.850120 -0.073495 -1.082535
O -5.356644 0.416939 -2.253814
C -3.293149 -0.087606 -0.807334
C -2.427589 -0.339239 -1.897069
C -1.045554 -0.376885 -1.768447
C -0.464751 -0.142746 -0.510370
O 0.889762 -0.183297 -0.459815
C 1.557730 0.043463 0.778297
C 3.044448 -0.054401 0.547990
C 3.700610 -1.290629 0.642756
C 5.072579 -1.389340 0.396325
C 5.804864 -0.249399 0.049149
C 5.159849 0.987517 -0.050657
C 3.787595 1.082062 0.196356
C -1.295730 0.117652 0.589411
C -2.695325 0.138488 0.455866
C -3.521189 0.403786 1.699180
H -5.399582 -0.969337 0.567582
H -4.682273 0.835204 -2.800757
H -2.857332 -0.528323 -2.886837
H -0.391310 -0.580907 -2.618676
H 1.232293 -0.707012 1.522017
H 1.293452 1.043021 1.169493
H 3.129814 -2.184196 0.912251
H 5.572225 -2.358502 0.476501
H 6.878870 -0.324726 -0.141417
H 5.727839 1.881753 -0.320901
H 3.285160 2.050568 0.115475
H -0.863571 0.313485 1.571825
H -4.438347 0.969656 1.480681
H -3.824060 -0.540918 2.189601
H -2.944617 0.968076 2.447936