17
Extracted from mol_752.out
O -2.812368 -0.519691 1.606283
B -2.182221 0.039616 0.530753
O -2.853041 0.680230 -0.483391
C -0.622280 -0.024137 0.398364
C 0.010014 0.560762 -0.718866
C 1.390869 0.541575 -0.901381
C 2.207210 -0.082183 0.056702
O 3.555937 -0.139091 -0.055667
C 1.623014 -0.676176 1.182547
C 0.239787 -0.634560 1.326889
F -0.266684 -1.217181 2.421908
H -3.773359 -0.435881 1.608594
H -3.811960 0.713314 -0.389883
H -0.617818 1.047893 -1.468702
H 1.841502 1.007742 -1.783490
H 3.829515 0.302497 -0.870845
H 2.241884 -1.164730 1.936131