26
Extracted from mol_1079.out
O -1.877456 3.434113 -0.209374
B -1.744263 2.080503 -0.364540
O -2.837704 1.373691 -0.762887
C -0.354750 1.357241 -0.159714
C 0.838417 1.982919 -0.574817
C 2.079435 1.360025 -0.456875
C 2.164489 0.071033 0.087730
C 3.528429 -0.568541 0.180230
O 4.550785 0.095313 0.159920
N 3.539545 -1.932922 0.294056
C 1.000221 -0.561125 0.544488
C -0.232815 0.079345 0.411380
O -1.389803 -0.496255 0.917311
C -1.783363 -1.750794 0.538877
O -1.112072 -2.489285 -0.129351
C -3.164594 -2.029503 1.068060
H -1.085754 3.866126 0.132771
H -3.604939 1.950949 -0.883748
H 0.789988 2.979672 -1.025765
H 2.999360 1.848028 -0.784317
H 4.448261 -2.382056 0.272196
H 2.731976 -2.490290 0.045735
H 1.040535 -1.539292 1.022043
H -3.874706 -1.356551 0.561312
H -3.215638 -1.807368 2.144586
H -3.433587 -3.074971 0.874790