26
Extracted from mol_1724.out
O -0.084131 2.267099 -2.325592
B -0.763658 1.762050 -1.253839
O -1.954241 2.320954 -0.926264
C -0.022746 0.584466 -0.465713
C 1.376491 0.590253 -0.632228
C 2.223784 -0.363683 -0.056643
C 3.708425 -0.221255 -0.294298
O 4.207109 0.840991 -0.621241
N 4.456897 -1.353236 -0.102520
C 1.660369 -1.382308 0.723304
C 0.281780 -1.430887 0.900642
C -0.566324 -0.458939 0.336557
C -2.014564 -0.708515 0.652082
O -2.469438 -1.796153 0.909834
O -2.795730 0.404419 0.699858
C -4.178400 0.192391 1.021811
H -0.564452 3.002586 -2.729078
H -2.362993 1.851250 -0.179328
H 1.836183 1.368659 -1.242385
H 4.034494 -2.272145 -0.092945
H 5.441112 -1.289951 -0.338095
H 2.289291 -2.128236 1.215742
H -0.167444 -2.229293 1.493355
H -4.273390 -0.247334 2.025030
H -4.646338 -0.484620 0.292678
H -4.652086 1.181436 0.989276