18
Extracted from mol_1906.out
O -3.143430 -0.155392 0.221820
B -2.053622 0.628358 0.028049
O -2.235788 1.962133 -0.176249
C -0.536556 0.138344 0.012412
C 0.459771 1.100972 -0.210099
C 1.823899 0.762376 -0.241629
C 2.813752 1.779027 -0.473812
N 3.614717 2.597205 -0.665821
C 2.220926 -0.573976 -0.045959
C 1.256455 -1.549631 0.176787
C -0.107285 -1.200094 0.205944
C -1.069306 -2.243447 0.438878
N -1.870407 -3.065341 0.623887
H -2.994762 -1.100388 0.366070
H -3.170642 2.208387 -0.158077
H 0.160814 2.139276 -0.362380
H 3.279813 -0.838273 -0.069728
H 1.551651 -2.589536 0.329907