18
Extracted from mol_1296.out
O -2.914165 0.426823 0.199858
B -1.990802 -0.528417 -0.011332
O -2.410409 -1.815593 -0.226251
C -0.396592 -0.332840 -0.042699
C 0.335060 -1.507933 -0.284176
C 1.733062 -1.525655 -0.346121
C 2.459504 -0.350916 -0.166284
C 1.754393 0.822159 0.073633
F 2.469101 1.946757 0.244542
C 0.344370 0.878930 0.143428
C -0.223032 2.218976 0.407759
O -1.402613 2.518487 0.511118
H -2.509538 1.314216 0.342670
H -3.375131 -1.865846 -0.195376
H -0.218238 -2.436918 -0.427710
H 2.260096 -2.464498 -0.536587
H 3.549971 -0.319592 -0.206718
H 0.534964 3.021861 0.520249