30
Extracted from mol_504.out
O -3.862837 -2.131500 -0.972721
B -3.357506 -1.145106 -0.169249
O -4.175328 -0.104592 0.159165
C -1.915453 -1.212970 0.487502
C -1.694092 -1.948265 1.664058
C -0.430265 -1.976321 2.257168
C 0.625784 -1.273432 1.677145
C 0.453862 -0.534625 0.490475
C 1.633434 0.195376 -0.064206
C 2.102368 -0.031806 -1.371190
C 3.239294 0.625191 -1.846226
C 3.927907 1.527986 -1.028711
C 3.474268 1.763442 0.271762
C 2.340520 1.099132 0.749933
C -0.835980 -0.513869 -0.094041
S -1.183336 0.400965 -1.612442
C -1.652898 2.031390 -0.925095
H -3.221300 -2.820522 -1.181215
H -5.030491 -0.168253 -0.289513
H -2.519955 -2.497540 2.127033
H -0.263968 -2.549947 3.173254
H 1.617341 -1.306710 2.135872
H 1.576228 -0.738330 -2.015572
H 3.591524 0.428770 -2.862623
H 4.815599 2.044042 -1.404465
H 4.002964 2.468389 0.919309
H 1.987638 1.291567 1.766805
H -0.815461 2.473848 -0.366212
H -1.889212 2.672698 -1.787329
H -2.540646 1.930994 -0.285070