16
Extracted from mol_1258.out
O 2.500239 1.491074 -0.143943
B 2.013095 0.231451 0.032720
O 2.883868 -0.812042 0.115382
C 0.442549 0.072732 0.131986
C -0.391744 1.203895 0.046288
C -1.773903 1.073398 0.135068
F -2.545537 2.167940 0.052880
C -2.382704 -0.169813 0.310082
C -1.578310 -1.307915 0.397561
C -0.197445 -1.160016 0.307314
F 0.558733 -2.288573 0.394490
H 3.465577 1.500329 -0.193787
H 2.437118 -1.660585 0.238940
H 0.046485 2.194496 -0.090702
H -3.470805 -0.233888 0.375460
H -2.007217 -2.302483 0.534151