21
Extracted from mol_121.out
O 3.034670 1.738809 -0.252157
B 2.771085 0.403485 -0.116355
O 3.732375 -0.555744 0.049213
C 1.268511 -0.059748 -0.152648
C 0.926045 -1.418077 -0.024255
C -0.410008 -1.805886 -0.060107
C -1.440207 -0.861785 -0.223461
C -2.826967 -1.385407 -0.248381
O -3.842596 -0.737588 -0.381154
C -1.124082 0.517226 -0.355006
C -2.179335 1.579195 -0.531642
C 0.229909 0.876330 -0.315234
H 3.964680 1.993076 -0.226262
H 4.644628 -0.243165 0.067332
H 1.713554 -2.164746 0.103429
H -0.677366 -2.863018 0.039596
H -2.881278 -2.500977 -0.128415
H -1.714557 2.573224 -0.613017
H -2.790820 1.396089 -1.428874
H -2.890590 1.585368 0.308959
H 0.492349 1.933341 -0.415296