29
Extracted from mol_16.out
O 3.500818 -1.884729 -0.733545
B 3.536282 -0.632145 -0.197378
O 4.754082 -0.168598 0.234076
C 2.236159 0.261499 -0.135695
C 2.398419 1.637986 -0.384401
C 1.314699 2.515637 -0.377262
C 0.041088 2.013742 -0.120863
C -0.168963 0.644117 0.125785
C -1.572663 0.191717 0.376113
C -2.187453 -0.779701 -0.435365
C -3.514014 -1.161208 -0.219299
C -4.254889 -0.580430 0.815176
C -3.659294 0.388220 1.628308
C -2.333247 0.771893 1.407993
C 0.936408 -0.244626 0.131780
C 0.744961 -1.710628 0.461969
H 4.376635 -2.295887 -0.731317
H 4.701788 0.693658 0.663331
H 3.395967 2.032486 -0.607046
H 1.458583 3.580454 -0.579293
H -0.821045 2.686108 -0.126865
H -1.621954 -1.228923 -1.255422
H -3.973325 -1.913389 -0.866706
H -5.292316 -0.880804 0.985327
H -4.228702 0.847337 2.441255
H -1.871248 1.524983 2.052109
H 1.616121 -2.114672 0.994985
H 0.636025 -2.319918 -0.450965
H -0.148921 -1.874181 1.078899