18
Extracted from mol_1486.out
O -3.125605 -0.667385 -0.925789
B -2.365638 0.310085 -0.347318
O -2.984491 1.456941 0.025933
C -0.816145 -0.038881 -0.180386
C -0.440990 -1.326727 -0.628079
C 0.868466 -1.797337 -0.556258
C 1.852123 -0.970988 -0.024337
C 1.550130 0.321831 0.438875
C 2.714142 1.084846 0.979650
O 2.721717 2.203675 1.429850
C 0.210417 0.767460 0.352267
Br -0.197675 2.539568 0.988978
H -4.050323 -0.394768 -0.995804
H -2.381370 2.104651 0.425278
H -1.223622 -1.963923 -1.044233
H 1.117547 -2.799710 -0.912560
H 2.888881 -1.315597 0.043528
H 3.662437 0.486259 0.930405