39
Extracted from mol_214.out
O -3.810091 -3.510900 -1.077557
B -2.499446 -3.332435 -0.719183
O -1.690847 -4.429150 -0.694428
C -1.887715 -1.929534 -0.346883
C -0.497232 -1.775450 -0.271757
C 0.071153 -0.532368 0.043067
O 1.430692 -0.487682 0.086016
C 2.085389 0.728302 0.378017
C 3.585141 0.535353 0.337590
C 4.415497 1.480846 0.959415
C 5.805491 1.355705 0.902256
C 6.384724 0.275903 0.227052
C 5.563222 -0.672777 -0.388066
C 4.171185 -0.544431 -0.335851
C -0.761191 0.569926 0.293920
C -2.159358 0.440788 0.233365
C -3.047186 1.646925 0.524769
C -3.891776 1.443359 1.795092
C -3.929047 2.023370 -0.678575
C -2.702652 -0.809024 -0.088382
H -4.310884 -2.689367 -1.138656
H -2.162533 -5.229854 -0.960490
H 0.166658 -2.622232 -0.457253
H 1.789080 1.503135 -0.358376
H 1.783210 1.102759 1.375230
H 3.970236 2.323793 1.497953
H 6.438703 2.099922 1.393006
H 7.472402 0.173210 0.185323
H 6.007621 -1.522742 -0.913439
H 3.528866 -1.287569 -0.810852
H -0.335982 1.543306 0.543278
H -2.372640 2.500475 0.714617
H -4.604839 0.610676 1.675297
H -4.475399 2.350002 2.026600
H -3.256777 1.214395 2.665521
H -4.654992 1.226648 -0.911959
H -3.322614 2.197086 -1.581574
H -4.502975 2.941667 -0.470403
H -3.793093 -0.912032 -0.120578