23
Extracted from mol_794.out
O -4.213451 0.396340 0.013486
B -2.939099 0.889499 -0.010287
O -2.751705 2.236388 -0.055282
C -1.756276 -0.158386 0.015792
C -2.042957 -1.530524 0.060230
C -1.037128 -2.504906 0.084637
C 0.291935 -2.104101 0.064028
C 0.640798 -0.739176 0.019390
C 2.093082 -0.433398 0.000520
O 2.984678 -1.245101 0.019387
O 2.362086 0.912874 -0.042252
C 3.744575 1.289564 -0.062058
C -0.395285 0.231941 -0.004447
O -0.131501 1.561150 -0.047277
H -4.866673 1.108334 -0.005501
H -1.804494 2.449991 -0.067881
H -3.093391 -1.832488 0.075798
H -1.292859 -3.566328 0.119381
H 1.106306 -2.831386 0.081696
H 4.242862 0.876825 -0.951369
H 3.761789 2.386215 -0.086361
H 4.257690 0.915682 0.835805
H 0.839018 1.690990 -0.057432