20
Extracted from mol_39.out
O -2.732324 -1.407338 0.361485
B -2.027271 -0.351898 -0.119790
O -2.783848 0.629867 -0.698657
C -0.432013 -0.269426 -0.002742
C 0.313805 -1.450446 0.232232
O -0.375460 -2.630567 0.367008
C 1.709552 -1.458032 0.333054
C 2.408514 -0.259174 0.220099
C 1.711149 0.930409 0.013034
C 0.311348 0.939679 -0.100745
C -0.355711 2.283347 -0.321735
H -2.145454 -2.116124 0.661800
H -2.272366 1.352552 -1.070900
H 0.239797 -3.354774 0.541030
H 2.239514 -2.400413 0.507363
H 3.498594 -0.253044 0.302796
H 2.260622 1.872670 -0.058841
H -0.668861 2.415541 -1.375244
H -1.241510 2.421181 0.316029
H 0.341921 3.105990 -0.107280