33
Extracted from mol_681.out
O 5.927409 1.389150 0.334723
B 5.249743 0.297320 -0.123882
O 6.017429 -0.698722 -0.650948
C 3.674384 0.193809 -0.046338
C 2.937200 0.825688 0.968902
C 1.545917 0.731596 1.051604
C 0.834987 -0.005566 0.091719
O -0.503372 -0.153109 0.084620
C -1.311555 0.525555 1.034058
C -2.770941 0.274625 0.731050
C -3.717465 0.398497 1.759063
C -5.078806 0.225618 1.496403
C -5.507915 -0.083662 0.201718
C -4.567837 -0.217514 -0.824288
C -3.205596 -0.037209 -0.564917
C 1.549973 -0.649037 -0.947516
C 0.801887 -1.446471 -1.991153
F 0.122106 -2.472172 -1.453430
F -0.087759 -0.690156 -2.665806
F 1.641013 -1.967569 -2.907163
C 2.939090 -0.544756 -0.994047
H 5.349004 2.115837 0.590952
H 5.519129 -1.495373 -0.864524
H 3.458906 1.401394 1.741034
H 1.020549 1.227635 1.867523
H -1.093915 1.610969 0.990334
H -1.069128 0.182238 2.056712
H -3.388033 0.628739 2.777408
H -5.805470 0.323738 2.307405
H -6.572056 -0.225664 -0.004862
H -4.894963 -0.466512 -1.837460
H -2.472127 -0.151430 -1.364831
H 3.458218 -1.047487 -1.813693