27
Extracted from mol_305.out
O 3.490561 1.461672 1.099261
B 2.499425 1.393347 0.169006
O 2.371790 2.439283 -0.706316
C 1.493056 0.172466 0.150711
C 1.856409 -1.187166 0.319884
C 3.275746 -1.618409 0.472831
O 3.617138 -2.773629 0.610785
C 0.867853 -2.183815 0.310309
C -0.475040 -1.855695 0.143967
C -0.872812 -0.519541 -0.028308
C -2.342287 -0.159252 -0.204685
C -2.614308 0.498434 -1.569520
C -2.859932 0.715890 0.951182
C 0.128529 0.466258 -0.029173
H 4.015286 2.270187 1.011067
H 1.693563 2.299979 -1.378089
H 4.031822 -0.799483 0.449155
H 1.186449 -3.221738 0.433760
H -1.231596 -2.646436 0.144774
H -2.906455 -1.107838 -0.178609
H -2.100971 1.470540 -1.657617
H -3.692934 0.681687 -1.704635
H -2.271076 -0.139804 -2.399108
H -3.940634 0.904469 0.841964
H -2.352330 1.694601 0.973369
H -2.695144 0.231601 1.926514
H -0.172109 1.512393 -0.152479