18
Extracted from mol_843.out
O 3.054782 1.320756 0.334979
B 2.463062 0.134898 -0.005247
O 3.272281 -0.911429 -0.332817
C 0.907875 -0.102311 -0.043206
C 0.391356 -1.377082 -0.376917
C -0.972865 -1.637088 -0.423968
C -1.894232 -0.618516 -0.136324
O -3.205580 -0.905412 -0.191943
C -1.407351 0.669573 0.200105
C -2.361408 1.696879 0.489104
N -3.188293 2.484027 0.712728
C -0.019707 0.904903 0.240872
H 2.447579 2.031404 0.568677
H 4.208759 -0.677958 -0.279544
H 1.094957 -2.181577 -0.604818
H -1.359494 -2.625082 -0.682416
H -3.736551 -0.122284 0.026544
H 0.304829 1.916300 0.504193