18
Extracted from mol_1491.out
O -2.874413 -0.983888 -1.580238
B -2.490603 -0.184564 -0.548666
O -3.455591 0.475785 0.157267
C -0.944963 -0.082248 -0.232779
C -0.037793 -0.980918 -0.824545
C 1.321487 -0.897453 -0.540640
C 1.842473 0.077767 0.331898
C 3.318344 0.050790 0.545595
O 3.966651 0.785683 1.248277
C 0.935998 0.985162 0.920307
Br 1.481989 2.365086 2.112899
C -0.429658 0.895802 0.635687
H -3.834581 -1.000838 -1.693282
H -3.133883 0.981676 0.912280
H -0.410665 -1.745744 -1.509261
H 2.021361 -1.602057 -1.001620
H 3.815966 -0.767290 -0.040643
H -1.092120 1.627249 1.107466