16
Extracted from mol_1567.out
O 2.847792 -0.833995 -0.288496
B 2.065196 0.249409 -0.035206
O 2.673062 1.450217 0.201617
C 0.498711 0.041796 -0.022986
C -0.028241 -1.263820 -0.010146
C -1.409562 -1.463472 0.011512
I -2.188934 -3.444647 0.041217
C -2.302209 -0.384925 0.013089
C -1.774900 0.910073 -0.008406
I -3.104628 2.573044 -0.017350
C -0.395228 1.127584 -0.025117
H 3.790392 -0.621315 -0.256406
H 2.075119 2.168292 0.438232
H 0.656211 -2.113594 -0.017118
H -3.379910 -0.549916 0.028689
H -0.022871 2.155267 -0.053125