29
Extracted from mol_330.out
O 0.442687 3.181379 -0.572006
B -0.147216 2.234959 0.216145
O -1.019087 2.715440 1.151107
C 0.224146 0.699332 0.071191
C 1.603166 0.388224 0.060796
C 2.068357 -0.929859 -0.023716
S 3.778117 -1.417067 -0.020657
C 4.675387 0.156710 0.103667
C 1.118134 -1.963820 -0.118326
C -0.241079 -1.668699 -0.126932
C -0.719916 -0.348511 -0.031359
C -2.225440 -0.086287 -0.075642
C -2.850580 -0.545992 -1.405454
C -2.958507 -0.712160 1.125383
H 0.995001 2.792065 -1.259826
H -1.355139 2.026715 1.735338
H 2.319044 1.209825 0.137319
H 4.482449 0.807786 -0.762454
H 4.438564 0.692121 1.035596
H 5.741156 -0.113153 0.112097
H 1.450089 -3.003690 -0.189143
H -0.950253 -2.496845 -0.214792
H -2.372024 1.003500 -0.015156
H -3.921064 -0.284390 -1.443867
H -2.353423 -0.070379 -2.265660
H -2.771345 -1.638194 -1.534968
H -2.544458 -0.357443 2.084081
H -4.031654 -0.459891 1.105044
H -2.875112 -1.811675 1.122194