24
Extracted from mol_865.out
O -3.700094 -1.252055 -0.839640
B -2.580862 -1.609534 -0.148243
O -2.624851 -2.820636 0.479992
C -1.302062 -0.679385 -0.079255
C -1.434508 0.711722 -0.093005
C -0.300013 1.544946 -0.020939
O -0.539664 2.880058 -0.028942
C 0.544499 3.777997 0.057579
C 0.974972 0.979481 0.053290
C 1.118153 -0.421685 0.060451
O 2.398931 -0.868627 0.123545
C 2.647737 -2.256376 0.130420
C -0.010167 -1.247759 0.001911
H -3.582609 -0.432135 -1.333290
H -1.852833 -2.974312 1.036387
H -2.413668 1.196458 -0.135844
H 1.236914 3.671457 -0.797469
H 0.115559 4.789343 0.043938
H 1.115715 3.642784 0.994016
H 1.882718 1.579558 0.104048
H 2.193763 -2.752318 1.007995
H 2.272673 -2.746838 -0.786326
H 3.738469 -2.378902 0.178366
H 0.101230 -2.333242 -0.008986