23
Extracted from mol_801.out
O -0.685414 2.069532 -2.146496
B -0.909451 1.825126 -0.819373
O -1.276940 2.772702 0.096076
C -0.982789 0.305267 -0.362137
C 0.159263 -0.351857 0.153013
C 1.407777 0.438885 0.239283
O 1.493173 1.602346 -0.108376
O 2.454773 -0.242889 0.740108
C 3.684024 0.471712 0.845902
C 0.088819 -1.693797 0.557219
C -1.108798 -2.396321 0.455573
C -2.249476 -1.755207 -0.054693
O -3.442101 -2.385460 -0.177819
C -2.176697 -0.411601 -0.458733
H -0.628405 3.002565 -2.385895
H -1.202703 3.685234 -0.208663
H 4.411723 -0.230832 1.271797
H 4.022861 0.818754 -0.142632
H 3.572754 1.349628 1.501053
H 0.980220 -2.184079 0.952122
H -1.165086 -3.443548 0.770775
H -3.361533 -3.297580 0.132181
H -3.085995 0.051421 -0.850284