16
Extracted from mol_1382.out
O 2.485253 -1.458589 0.416029
B 2.045839 -0.197277 0.131536
O 2.976724 0.778447 -0.033475
C 0.470058 -0.022365 0.025529
C -0.309267 -1.183851 0.231963
C -1.701012 -1.190072 0.171775
C -2.368697 0.005575 -0.105424
Cl -4.111601 0.035471 -0.188375
C -1.654383 1.186680 -0.318785
C -0.259333 1.149158 -0.249689
Br 0.606403 2.848013 -0.564427
H 3.449798 -1.493687 0.465782
H 2.603921 1.650278 -0.233235
H 0.217090 -2.115768 0.448419
H -2.268455 -2.107438 0.336974
H -2.182337 2.115427 -0.534595