19
Extracted from mol_103.out
O 3.522256 0.724492 -0.406451
B 2.398713 0.780270 0.350403
O 2.446481 1.617715 1.427717
C 1.051541 -0.004245 0.011823
C 0.943380 -1.276818 -0.579366
Br 2.511533 -2.293592 -1.052986
C -0.289554 -1.874052 -0.843731
C -1.467667 -1.189843 -0.533393
C -1.428588 0.087287 0.041456
C -2.690608 0.850255 0.364038
C -0.166963 0.642952 0.303042
H 3.469037 0.077019 -1.121561
H 1.661886 1.567773 1.984407
H -0.331910 -2.868400 -1.292003
H -2.430558 -1.662614 -0.747717
H -2.713757 1.160271 1.422064
H -2.766383 1.769219 -0.241852
H -3.589647 0.246717 0.170141
H -0.129195 1.645592 0.743968