17
Extracted from mol_1542.out
O 2.749642 1.550356 0.548461
B 2.297572 0.379239 0.025092
O 3.238653 -0.452517 -0.497285
C 0.753113 0.003728 0.024860
C -0.231900 0.990904 -0.137160
C -1.598325 0.658026 -0.143229
C -2.590710 1.683311 -0.321404
N -3.388055 2.514418 -0.467759
C -2.000844 -0.679629 0.026932
C -1.023216 -1.660532 0.193927
Br -1.552887 -3.473955 0.433529
C 0.335444 -1.330626 0.187964
H 2.072479 2.065870 1.000621
H 2.875262 -1.220161 -0.952671
H 0.051267 2.037360 -0.278183
H -3.059939 -0.940062 0.027812
H 1.072445 -2.125727 0.328493