23
Extracted from mol_1800.out
O 2.693376 -2.507403 1.225931
B 2.626777 -1.301989 0.588276
O 3.788527 -0.700964 0.211358
C 1.273780 -0.555082 0.263944
C 1.299091 0.754901 -0.255377
C 0.114087 1.437821 -0.532080
C 0.127517 2.850820 -1.063616
F -0.487050 3.700165 -0.216915
F 1.370200 3.311989 -1.264598
F -0.531120 2.937572 -2.237540
C -1.125083 0.820649 -0.311101
C -1.178390 -0.486247 0.183848
C -2.464141 -1.229357 0.459013
O -2.482386 -2.221681 1.168103
N -3.595011 -0.723541 -0.118813
C 0.023206 -1.149096 0.478139
H 1.843213 -2.868484 1.503344
H 4.566022 -1.219363 0.459291
H 2.259627 1.240181 -0.435868
H -2.040165 1.384441 -0.507382
H -3.559199 -0.061093 -0.881734
H -4.449661 -1.253680 0.008778
H -0.073216 -2.160556 0.884242