26
Extracted from mol_449.out
O -4.926629 0.087497 -0.841253
B -4.232935 -0.284892 0.270529
O -4.942427 -0.735699 1.350343
C -2.661366 -0.176545 0.235395
C -1.990584 0.125750 -0.964243
C -0.601380 0.215702 -1.007514
C 0.200462 0.013592 0.134865
C 1.681763 0.128498 0.014741
C 2.247456 1.260196 -0.600791
C 3.630586 1.371084 -0.766161
C 4.474110 0.347004 -0.326673
C 3.924041 -0.786510 0.280874
C 2.542589 -0.894458 0.453339
C -0.479035 -0.276372 1.336379
Cl 0.388887 -0.487568 2.849326
C -1.872713 -0.369075 1.380849
H -5.879832 -0.027709 -0.728716
H -4.401046 -1.027880 2.092436
H -2.572643 0.285166 -1.874954
H -0.102317 0.431133 -1.955751
H 1.594619 2.069538 -0.937953
H 4.049853 2.263867 -1.238064
H 5.556398 0.431066 -0.456749
H 4.575450 -1.595981 0.621342
H 2.124593 -1.785903 0.924740
H -2.327904 -0.581504 2.352789