27
Extracted from mol_1208.out
O -4.219859 -1.536522 -0.742263
B -3.617320 -0.440763 -0.172819
O -4.429061 0.531169 0.276409
C -2.018393 -0.431066 -0.028817
C -1.399881 -1.686966 0.142355
C -0.024899 -1.849326 0.285920
C 0.822359 -0.730862 0.253100
N 2.205749 -0.934361 0.400816
C 3.231650 -0.015524 0.295330
O 3.061099 1.164003 0.047497
C 4.618238 -0.588906 0.543280
C 0.244910 0.537593 0.086207
C -1.145480 0.688805 -0.043702
C -1.660926 2.105264 -0.153925
O -2.692700 2.490259 0.393271
N -0.893438 2.965672 -0.870576
H -3.595547 -2.152801 -1.138367
H -3.916310 1.318829 0.563488
H -2.024315 -2.584703 0.183513
H 0.394223 -2.850689 0.427873
H 2.478912 -1.891753 0.588465
H 4.960154 -0.269757 1.541572
H 5.310290 -0.154973 -0.192097
H 4.667555 -1.686838 0.489218
H 0.904659 1.401455 0.089138
H -1.192116 3.932741 -0.927758
H -0.069558 2.670020 -1.376230