22
Extracted from mol_931.out
O -2.340176 2.439062 -0.661526
B -2.583484 1.115528 -0.444988
O -3.884689 0.706323 -0.359226
C -1.345946 0.145862 -0.302276
C -1.493098 -1.249549 -0.178461
C -0.377795 -2.071549 -0.051502
C 0.917672 -1.533746 -0.042929
C 2.080295 -2.447341 0.096615
O 1.978348 -3.651456 0.206574
C 1.082226 -0.130844 -0.168541
O 2.353027 0.335206 -0.155252
C 2.595676 1.722682 -0.273211
C -0.048801 0.689467 -0.297438
H -3.157197 2.951670 -0.726578
H -3.997807 -0.234288 -0.180480
H -2.486897 -1.709984 -0.186345
H -0.469736 -3.156339 0.044545
H 3.079322 -1.953299 0.094991
H 3.685721 1.850374 -0.233531
H 2.220441 2.123297 -1.231455
H 2.135759 2.289363 0.555520
H 0.057142 1.769561 -0.397090