26
Extracted from mol_1729.out
O -2.249178 -1.988366 -1.734096
B -1.779907 -1.874053 -0.459827
O -1.820695 -2.977438 0.351962
C -0.942560 -0.567789 -0.094566
C -1.571779 0.612658 0.352880
C -3.066591 0.540897 0.494782
O -3.629697 -0.547443 0.519490
N -3.751660 1.712680 0.609337
C -0.817839 1.752029 0.677685
C 0.568442 1.737385 0.545919
C 1.212617 0.577491 0.089963
C 2.702806 0.613075 -0.037890
O 3.386912 1.577025 0.220594
O 3.212279 -0.553337 -0.476254
C 4.629573 -0.604958 -0.633259
C 0.454391 -0.562742 -0.221119
H -2.719945 -2.824108 -1.857789
H -1.536692 -2.801999 1.255762
H -3.329720 2.600292 0.372225
H -4.763536 1.655783 0.632945
H -1.304770 2.651013 1.065230
H 1.173554 2.610405 0.797949
H 4.971327 0.153856 -1.353951
H 4.860263 -1.612344 -1.001937
H 5.136971 -0.423727 0.326968
H 0.975435 -1.456283 -0.570896