22
Extracted from mol_935.out
O -3.993988 0.205497 -0.965428
B -3.186212 0.332007 0.124632
O -3.817314 0.616146 1.301452
C -1.616893 0.159814 0.033499
C -0.847777 -0.272376 1.133019
C 0.537209 -0.432689 1.066598
C 1.216166 -0.150114 -0.131266
O 2.552307 -0.270484 -0.285892
C 3.354199 -0.706159 0.794382
C 0.476216 0.288676 -1.258418
C 1.136651 0.600934 -2.552196
O 0.535481 0.972270 -3.538264
C -0.913670 0.428236 -1.150542
H -3.526144 -0.077600 -1.759142
H -3.208496 0.809435 2.022511
H -1.343419 -0.511804 2.080393
H 1.079494 -0.779334 1.946441
H 3.289305 -0.015634 1.653638
H 3.074109 -1.721609 1.125636
H 4.388171 -0.722440 0.425257
H 2.243266 0.469512 -2.570081
H -1.428663 0.777717 -2.051447