19
Extracted from mol_79.out
O 2.802092 0.433542 0.554398
B 2.006926 -0.556012 0.052666
O 2.670744 -1.642580 -0.420613
C 0.412203 -0.444807 0.009247
C -0.367772 -1.610922 -0.022200
F 0.261236 -2.816419 -0.031111
C -1.757558 -1.640756 -0.049538
C -2.434842 -0.422594 -0.064300
C -1.713069 0.772888 -0.054395
C -0.309795 0.782198 -0.013730
C 0.389203 2.126509 0.001413
H 2.320073 1.177794 0.925359
H 2.077101 -2.352867 -0.691587
H -2.275472 -2.601517 -0.065817
H -3.527396 -0.405038 -0.091941
H -2.250744 1.724442 -0.081687
H 1.271208 2.149349 -0.655530
H 0.718905 2.400812 1.021888
H -0.293041 2.925976 -0.322521