24
Extracted from mol_743.out
O -4.335857 1.089489 0.072815
B -3.076848 1.286856 -0.420334
O -2.857673 2.493341 -1.015373
C -1.949340 0.184389 -0.310066
C -2.261421 -1.181367 -0.207688
C -1.255391 -2.148359 -0.120043
C 0.084740 -1.764418 -0.129576
O 1.121334 -2.650223 -0.044298
C 0.435620 -0.396653 -0.232579
N 1.809285 -0.103798 -0.234001
C 2.428246 1.118632 -0.384638
O 1.829422 2.168980 -0.529816
C 3.948534 1.039129 -0.364201
C -0.588846 0.554317 -0.322119
H -4.415859 0.272113 0.576482
H -1.981976 2.567772 -1.412008
H -3.304551 -1.513402 -0.214767
H -1.508204 -3.211588 -0.048834
H 0.781624 -3.551578 0.028523
H 2.403533 -0.919777 -0.133679
H 4.351431 2.058689 -0.395575
H 4.311857 0.529347 0.543093
H 4.320569 0.478426 -1.238024
H -0.290227 1.599684 -0.389887