30
Extracted from mol_498.out
O -4.254397 1.758029 0.842461
B -3.642098 1.307280 -0.302886
O -4.165752 1.451702 -1.565762
C -2.084874 0.987683 -0.205684
C -1.091118 1.971310 -0.303400
C 0.264038 1.647341 -0.212062
C 0.684833 0.317658 -0.016627
C 2.128501 -0.029618 0.083065
C 2.580537 -1.001762 0.996252
C 3.935255 -1.329567 1.088420
C 4.871861 -0.691324 0.269557
C 4.439786 0.277832 -0.641352
C 3.084896 0.604545 -0.733185
C -0.307801 -0.671575 0.079779
C -1.666399 -0.342985 -0.013287
C -2.790887 -1.330259 0.067754
O -3.951638 -0.931466 -0.027241
N -2.506664 -2.645242 0.243256
H -5.196947 1.939542 0.747420
H -5.111142 1.641841 -1.587847
H -1.376747 3.017505 -0.446832
H 1.012329 2.442157 -0.269356
H 1.863971 -1.487605 1.663679
H 4.262259 -2.081085 1.812378
H 5.932384 -0.946631 0.341703
H 5.161845 0.778620 -1.292198
H 2.758939 1.346345 -1.466559
H 0.011393 -1.710214 0.202315
H -1.565014 -2.995546 0.340879
H -3.281350 -3.294509 0.305365