20
Extracted from mol_1640.out
O -2.683055 2.015884 -0.575217
B -2.552997 0.966520 0.286145
O -3.511105 0.863808 1.241473
C -1.285544 0.002923 0.173436
C -0.057111 0.616027 -0.156361
C 1.161659 -0.073960 -0.273388
B 2.481487 0.708171 -0.634765
O 2.365358 1.996019 -1.062815
O 3.735290 0.169658 -0.539635
C 1.131511 -1.462505 -0.061606
C -0.055089 -2.123647 0.260683
C -1.238379 -1.388202 0.383254
I -2.995774 -2.515776 0.885060
H -2.016543 2.024425 -1.271268
H -3.412391 0.092304 1.813594
H -0.041926 1.698221 -0.319557
H 3.225562 2.400767 -1.238900
H 3.762294 -0.721934 -0.174398
H 2.042603 -2.064297 -0.157371
H -0.055849 -3.204408 0.413304