22
Extracted from mol_1018.out
O -0.415168 -2.304438 0.830083
B -1.393409 -1.525937 0.291536
O -2.609344 -2.104554 0.044857
C -1.132743 0.007008 0.013118
C -2.179025 0.941587 0.155779
C -1.979007 2.307741 -0.051886
C -0.716462 2.778632 -0.423990
C 0.323250 1.867946 -0.578980
F 1.533849 2.295673 -0.952200
C 0.126275 0.499397 -0.362568
O 1.172551 -0.371042 -0.595485
C 2.186008 -0.441602 0.330948
O 2.236688 0.259541 1.300535
C 3.156939 -1.522968 -0.056391
H -0.721101 -3.210795 0.974578
H -3.234942 -1.522946 -0.402994
H -3.170891 0.594369 0.462201
H -2.804077 3.012300 0.078068
H -0.520166 3.838692 -0.599001
H 4.044222 -1.471176 0.586088
H 3.436832 -1.429693 -1.116016
H 2.659722 -2.497733 0.071718