28
Extracted from mol_472.out
O 0.351940 -1.532966 -2.327506
B -0.612547 -1.722408 -1.388537
O -1.240926 -2.934854 -1.425322
C -1.064337 -0.603251 -0.351806
C -2.443602 -0.468653 -0.107400
C -2.969841 0.542353 0.706809
C -4.433900 0.648635 0.923981
O -4.968690 1.486053 1.614138
C -2.092619 1.456747 1.311048
C -0.724371 1.344637 1.094176
C -0.191122 0.327750 0.273134
C 1.289314 0.259687 0.100316
C 2.024880 1.413988 -0.233302
C 3.413834 1.362323 -0.378680
C 4.096305 0.157537 -0.184101
C 3.380344 -0.995340 0.154392
C 1.991835 -0.945688 0.292600
H 0.801056 -0.682781 -2.252013
H -1.870508 -3.060395 -0.706761
H -3.145745 -1.158423 -0.590782
H -5.039953 -0.128860 0.386979
H -2.507838 2.239420 1.950704
H -0.040484 2.040986 1.585971
H 1.497754 2.357727 -0.396678
H 3.964292 2.267665 -0.647975
H 5.183004 0.116843 -0.295058
H 3.906232 -1.939936 0.315697
H 1.445694 -1.848799 0.575975