19
Extracted from mol_784.out
O 3.029530 1.572522 0.336926
B 2.320591 0.479132 -0.044588
O 3.017718 -0.455889 -0.778129
C 0.785926 0.293186 0.263399
C 0.228465 0.711359 1.485389
C -1.125594 0.532172 1.789008
C -1.954516 -0.068872 0.845729
C -1.453293 -0.490914 -0.396630
C -2.379140 -1.112317 -1.378484
O -3.559325 -1.292114 -1.164916
C -0.081320 -0.309506 -0.682140
O 0.365055 -0.721427 -1.895892
H 2.482280 2.263895 0.728281
H 2.609838 -1.331011 -0.767451
H 0.881375 1.176422 2.232134
H -1.524030 0.857980 2.752583
H -3.019215 -0.228228 1.034690
H -1.918295 -1.412179 -2.348256
H 1.293950 -0.464213 -2.011653