27
Extracted from mol_878.out
O -3.084275 2.380393 0.525896
B -1.734273 2.225066 0.427811
O -0.931534 3.325803 0.501176
C -1.035668 0.818693 0.231978
C 0.364642 0.766187 0.144402
C 1.047847 -0.451426 -0.027296
N 2.452626 -0.557520 -0.119570
C 3.406656 0.435671 -0.068916
O 3.157316 1.617794 0.072318
C 4.840191 -0.061374 -0.212272
C 0.297375 -1.633357 -0.111851
C -1.095947 -1.611749 -0.028485
C -1.761064 -0.391975 0.142724
O -3.131765 -0.303639 0.232193
C -3.920341 -1.472091 0.155909
H -3.521633 1.515770 0.456899
H -1.448449 4.133201 0.621164
H 0.935905 1.689734 0.211684
H 2.799638 -1.501030 -0.240039
H 4.940814 -1.155170 -0.280259
H 5.421486 0.300872 0.649177
H 5.280480 0.395222 -1.112504
H 0.804893 -2.594338 -0.245763
H -1.641939 -2.552500 -0.099009
H -4.966877 -1.152403 0.253578
H -3.683541 -2.177860 0.972018
H -3.792563 -1.987974 -0.812484