22
Extracted from mol_2.out
O -1.489789 2.683253 -0.068056
B -1.783193 1.341877 -0.027366
O -3.074102 0.877855 -0.002786
C -0.573514 0.338099 -0.009140
C 0.719687 0.900433 -0.025101
C 1.891738 0.134155 -0.013024
C 3.256425 0.781559 -0.000791
C 1.746754 -1.259749 0.010217
C 0.480119 -1.845825 0.026400
C -0.694854 -1.077596 0.018481
C -2.027178 -1.792707 0.034865
H -2.249929 3.276041 -0.077826
H -3.755327 1.560896 -0.015851
H 0.805481 1.990307 -0.050565
H 3.654455 0.859442 1.027029
H 3.986988 0.199580 -0.585515
H 3.223144 1.801158 -0.414943
H 2.635541 -1.899383 0.013545
H 0.399320 -2.937134 0.042086
H -2.629721 -1.511872 0.912798
H -2.638757 -1.536605 -0.844253
H -1.883291 -2.883780 0.049795