34
Extracted from mol_667.out
O -5.258050 -2.167196 -0.680761
B -3.891987 -2.100733 -0.765749
O -3.237642 -3.177559 -1.292249
C -3.041014 -0.867262 -0.296157
C -3.612608 0.280752 0.269269
C -2.828602 1.365853 0.677186
C -1.436973 1.334321 0.533126
S -0.324013 2.634728 1.001738
C -1.440032 3.871366 1.727514
C -0.840837 0.176816 -0.036216
O 0.513158 0.218376 -0.143101
C 1.218999 -0.908490 -0.629128
C 2.706667 -0.654369 -0.546859
C 3.572312 -1.303651 -1.439299
C 4.955761 -1.128055 -1.345356
C 5.489870 -0.290335 -0.361465
C 4.631657 0.367270 0.525516
C 3.248409 0.185698 0.436946
C -1.636446 -0.895172 -0.440188
H -5.667621 -1.379353 -0.305836
H -3.850777 -3.879197 -1.548654
H -4.697245 0.356857 0.406182
H -3.316292 2.239549 1.110807
H -2.159198 4.260169 0.990597
H -0.788482 4.695368 2.052211
H -1.976477 3.477294 2.604056
H 0.953679 -1.799812 -0.025863
H 0.925912 -1.126448 -1.673143
H 3.160678 -1.951605 -2.219681
H 5.617450 -1.640574 -2.049011
H 6.571362 -0.146446 -0.289933
H 5.041540 1.029172 1.293476
H 2.577983 0.705031 1.124431
H -1.181135 -1.782363 -0.880828