22
Extracted from mol_1047.out
O 4.362556 -0.788184 0.006593
B 3.570540 0.319560 0.029677
O 4.167439 1.535692 0.222856
C 2.018320 0.128261 -0.159420
C 1.140368 1.205142 -0.378649
C -0.231582 1.015997 -0.540609
C -0.765256 -0.275889 -0.479967
O -2.100625 -0.536325 -0.691661
C -3.092122 0.163646 -0.047412
O -2.884515 1.060317 0.720603
C -4.435842 -0.376998 -0.457675
C 0.092927 -1.366611 -0.260982
Br -0.618525 -3.130778 -0.170194
C 1.465034 -1.164498 -0.111612
H 5.293672 -0.573649 0.152833
H 3.553230 2.275233 0.293546
H 1.523812 2.229299 -0.440618
H -0.896468 1.862695 -0.709337
H -5.228486 0.178199 0.057944
H -4.496033 -1.448366 -0.211173
H -4.556543 -0.288574 -1.548744
H 2.118098 -2.024168 0.048780