20
Extracted from mol_1417.out
O 2.373939 -1.210279 1.073298
B 1.796900 -0.856387 -0.118279
O 2.283206 -1.180562 -1.356821
C 0.681775 0.287743 -0.063892
C -0.680337 -0.066214 0.027203
C -0.932492 -1.545404 0.081374
O 0.005760 -2.328091 -0.043966
N -2.205224 -1.983760 0.264284
C -1.689318 0.907705 0.052894
C -1.350938 2.260700 0.001554
C -0.009618 2.640954 -0.076343
C 0.981975 1.654285 -0.109743
Cl 2.656409 2.176373 -0.212829
H 3.049914 -1.894793 1.005734
H 2.961932 -1.865587 -1.357504
H -2.969680 -1.363404 0.488315
H -2.350690 -2.983097 0.343833
H -2.745735 0.630452 0.097676
H -2.131942 3.025057 0.018840
H 0.274163 3.694311 -0.115627