20
Extracted from mol_1469.out
O -1.028539 -2.513446 1.339917
B -1.207979 -1.497168 0.448923
O -2.403676 -1.288846 -0.206887
C 0.035828 -0.594591 0.099577
C 0.013311 0.809996 -0.140171
B -1.251436 1.774630 0.014242
O -1.067417 3.066101 0.433877
O -2.528809 1.425730 -0.264813
C 1.227321 1.427208 -0.506510
C 2.426749 0.725849 -0.639218
C 2.432219 -0.642755 -0.369088
Cl 3.923057 -1.550056 -0.499933
C 1.255787 -1.293136 0.005830
H -1.783052 -3.097294 1.485701
H -3.139270 -1.863773 0.041535
H -0.163021 3.248048 0.710702
H -2.619937 0.493664 -0.519727
H 1.241177 2.502003 -0.715433
H 3.346764 1.230157 -0.941361
H 1.290924 -2.362325 0.222836