25
Extracted from mol_1748.out
O -2.266494 -3.284752 0.286129
B -2.676368 -2.014356 0.027527
O -4.010725 -1.788452 -0.166321
C -1.575981 -0.883583 -0.036034
C -1.905600 0.482560 -0.076042
C -0.917294 1.470524 -0.137871
C -1.291678 2.933043 -0.126294
F -2.561214 3.130251 -0.527533
F -0.495508 3.656764 -0.932669
F -1.182450 3.462479 1.107373
C 0.432646 1.108615 -0.167218
C 0.786312 -0.246712 -0.123800
C 2.214860 -0.694432 -0.151871
O 2.568155 -1.849523 -0.117681
O 3.074529 0.339652 -0.219894
C 4.462771 0.006931 -0.250278
C -0.213769 -1.226939 -0.054216
H -3.000437 -3.913977 0.290857
H -4.241077 -0.882320 -0.400600
H -2.950996 0.803883 -0.056546
H 1.210680 1.870103 -0.227477
H 4.694434 -0.622718 -1.122977
H 5.004294 0.959124 -0.311687
H 4.752955 -0.540499 0.659674
H 0.087956 -2.275666 -0.017789