26
Extracted from mol_1727.out
O 4.586132 0.055919 0.450366
B 3.382841 0.657264 0.204199
O 3.356426 2.012749 0.073581
C 2.023070 -0.129164 0.067956
C 1.948308 -1.530870 0.020726
C 0.725258 -2.185533 -0.085518
C -0.489518 -1.486870 -0.189822
C -1.699807 -2.427301 -0.246695
O -1.604789 -3.540608 0.251902
N -2.803478 -2.016984 -0.909569
C -0.437599 -0.065683 -0.142516
C -1.622097 0.851474 -0.244401
O -2.615770 0.682649 -0.926515
O -1.458946 1.962227 0.486495
C -2.492027 2.946441 0.398394
C 0.810510 0.571250 0.000806
H 4.540037 -0.898751 0.575858
H 4.232422 2.405650 0.187039
H 2.857158 -2.141602 0.070827
H 0.671040 -3.274951 -0.076388
H -3.590835 -2.655550 -0.909593
H -2.911754 -1.052661 -1.223255
H -2.603160 3.304194 -0.636528
H -3.454905 2.529514 0.729682
H -2.183365 3.767571 1.056830
H 0.834847 1.659627 0.054677