28
Extracted from mol_1719.out
O -0.103431 -2.456399 -0.158997
B -0.168987 -1.283986 -0.847873
O -0.285298 -1.319042 -2.210623
C -0.164622 0.066900 0.021583
C -1.343466 0.652394 0.539705
C -2.715092 0.098043 0.296555
O -3.726819 0.520068 0.808287
O -2.708969 -0.924078 -0.575604
C -3.961638 -1.544506 -0.858821
C -1.293855 1.805669 1.341250
C -0.076338 2.409555 1.644582
C 1.102370 1.853729 1.149248
C 1.058777 0.699756 0.350367
C 2.320648 0.102438 -0.179195
O 2.354126 -0.843559 -0.936887
O 3.430808 0.719234 0.261361
C 4.674242 0.196364 -0.206504
H -0.061464 -3.210720 -0.762293
H -0.283421 -0.450778 -2.626763
H -4.677552 -0.810612 -1.259308
H -3.753013 -2.322931 -1.603189
H -4.389916 -1.988961 0.052662
H -2.235710 2.208565 1.719403
H -0.044592 3.307142 2.267055
H 2.069038 2.304545 1.377723
H 5.457150 0.811817 0.254048
H 4.736146 0.256482 -1.304026
H 4.790879 -0.857133 0.090391