33
Extracted from mol_677.out
O -3.117612 3.346294 0.548570
B -2.585038 2.500024 -0.376044
O -2.321680 3.035188 -1.601856
C -2.287209 0.978149 -0.045009
C -3.116065 0.245600 0.820529
C -2.840506 -1.092967 1.109523
C -1.732738 -1.730462 0.548335
C -1.422883 -3.170780 0.884476
F -0.211456 -3.302844 1.462669
F -1.433264 -3.962599 -0.199879
F -2.321931 -3.677655 1.750131
C -0.889321 -1.014711 -0.332925
O 0.149400 -1.707140 -0.854886
C 1.146563 -1.065011 -1.637010
C 2.103354 -0.213349 -0.825372
C 2.711579 0.911480 -1.400355
C 3.640918 1.665325 -0.676873
C 3.964169 1.305326 0.634668
C 3.355105 0.188421 1.216795
C 2.432124 -0.569539 0.491485
C -1.174848 0.328563 -0.613692
H -3.196267 2.948316 1.423037
H -2.048696 2.376145 -2.249824
H -3.997210 0.714287 1.268722
H -3.489151 -1.656957 1.781673
H 1.690787 -1.899892 -2.107472
H 0.691177 -0.477516 -2.454107
H 2.457731 1.203662 -2.424574
H 4.106739 2.540923 -1.136883
H 4.685824 1.896937 1.204208
H 3.600919 -0.095919 2.243559
H 1.952521 -1.439505 0.946849
H -0.503037 0.892203 -1.263220