30
Extracted from mol_491.out
O -0.897607 3.350764 -1.579528
B -1.021698 2.437289 -0.566065
O -2.137698 2.311493 0.210490
C 0.238234 1.549308 -0.232863
C 1.482143 2.202651 -0.129141
C 2.633491 1.537061 0.286190
C 2.578309 0.169305 0.585618
C 3.853076 -0.503388 1.029957
O 4.803728 0.134917 1.449895
N 3.876765 -1.871464 0.946923
C 1.351880 -0.499501 0.472856
C 0.181975 0.164041 0.064388
C -1.072337 -0.628602 -0.088705
C -1.827073 -0.557573 -1.274235
C -2.984645 -1.322196 -1.436335
C -3.413831 -2.174773 -0.413990
C -2.672938 -2.257713 0.768939
C -1.512842 -1.494996 0.928069
H -1.653666 3.937385 -1.706618
H -2.886479 2.872021 -0.026954
H 1.539498 3.268860 -0.365323
H 3.589447 2.054815 0.387411
H 3.217039 -2.378206 0.372093
H 4.757820 -2.322609 1.165474
H 1.285055 -1.564403 0.709421
H -1.484394 0.086922 -2.088756
H -3.549861 -1.258985 -2.370517
H -4.319847 -2.773701 -0.539785
H -3.002955 -2.916280 1.577184
H -0.950589 -1.552438 1.863910