23
Extracted from mol_1112.out
O -4.297840 0.222128 -0.459342
B -3.145312 0.820102 -0.040889
O -3.229606 2.059415 0.507508
C -1.814585 -0.027723 -0.252646
C -1.922737 -1.296056 -0.847337
C -0.799125 -2.094757 -1.064348
C 0.480952 -1.666964 -0.699050
C 0.621898 -0.409416 -0.104964
O 1.803495 0.160305 0.311781
C 3.056449 -0.391251 0.228170
O 3.293538 -1.473470 -0.233296
C 4.061741 0.571951 0.801124
C -0.515060 0.403546 0.116468
C -0.321778 1.687969 0.728445
N -0.235248 2.741040 1.214226
H -5.066983 0.786895 -0.304174
H -2.402662 2.468836 0.800591
H -2.912081 -1.651465 -1.140650
H -0.911948 -3.077882 -1.529224
H 1.356107 -2.288065 -0.867368
H 5.064279 0.132462 0.738372
H 3.809244 0.798899 1.848569
H 4.027260 1.523501 0.248035