36
Extracted from mol_650.out
O -4.426253 -2.793035 0.444615
B -4.263376 -1.446446 0.243841
O -5.381568 -0.679068 0.206992
C -2.758783 -0.942591 0.120902
C -1.805646 -1.869367 0.587521
C -0.426514 -1.650887 0.562919
C 0.066938 -0.456742 0.020926
O 1.376217 -0.123336 -0.069999
C 2.364977 -1.032687 0.408700
C 3.725570 -0.416841 0.204646
C 4.409941 -0.587124 -1.008022
C 5.656682 0.010119 -1.211523
C 6.233177 0.787932 -0.202058
C 5.558128 0.965957 1.009714
C 4.311110 0.367456 1.209287
C -0.846127 0.482139 -0.478789
C -2.229325 0.269581 -0.418741
C -2.997364 1.418072 -1.013810
O -2.551090 2.178149 -1.837350
O -4.247821 1.605453 -0.503493
C -4.979613 2.722680 -1.027661
H -5.362879 -3.009115 0.544588
H -5.152647 0.256569 0.069603
H -2.170224 -2.817467 0.987090
H 0.241997 -2.417144 0.956970
H 2.193329 -1.241951 1.480364
H 2.288174 -1.989730 -0.139235
H 3.960551 -1.193361 -1.800101
H 6.180686 -0.132476 -2.160414
H 7.209748 1.253825 -0.359230
H 6.004655 1.572462 1.802221
H 3.784227 0.509931 2.157498
H -0.459227 1.399274 -0.923679
H -4.440644 3.659603 -0.826861
H -5.118535 2.621612 -2.113905
H -5.948473 2.718557 -0.512623