30
Extracted from mol_506.out
O -3.969214 -2.668627 -0.456392
B -2.652306 -2.551844 -0.102650
O -2.022261 -3.654926 0.391047
C -1.825820 -1.217122 -0.239659
C -2.440649 0.012727 -0.534696
C -1.688640 1.187277 -0.665395
S -2.500770 2.736522 -1.077762
C -2.613164 3.515999 0.575567
C -0.297038 1.134332 -0.511359
C 0.354766 -0.074314 -0.203765
C 1.833222 -0.121451 -0.031859
C 2.421553 -0.948785 0.944044
C 3.807884 -0.993207 1.107932
C 4.639005 -0.212049 0.298899
C 4.070272 0.614001 -0.675529
C 2.683773 0.658845 -0.838415
C -0.430215 -1.233850 -0.071437
H -4.346832 -1.873361 -0.849484
H -2.607467 -4.423975 0.416328
H -3.525915 0.087367 -0.660815
H -3.097921 4.492160 0.424447
H -1.615442 3.675284 1.010550
H -3.226113 2.911077 1.259972
H 0.280254 2.055901 -0.615518
H 1.783003 -1.547840 1.597879
H 4.240859 -1.637559 1.878004
H 5.724188 -0.247378 0.426708
H 4.710553 1.222619 -1.320001
H 2.255279 1.290565 -1.620558
H 0.055158 -2.188388 0.143921