32
Extracted from mol_634.out
O -3.765701 -2.267187 -1.261451
B -2.538329 -2.106159 -0.689452
O -1.694546 -3.172321 -0.610996
C -2.170916 -0.662756 -0.154452
C -3.104224 0.372259 -0.274098
C -2.838087 1.677818 0.174698
C -3.849321 2.749127 0.032688
O -4.947870 2.610163 -0.456266
C -1.593148 1.952745 0.755689
C -0.632038 0.951882 0.893854
C -0.924441 -0.346647 0.448474
O -0.036783 -1.383744 0.571799
C 1.234824 -1.208498 1.191255
C 2.263399 -0.527433 0.310445
C 3.277891 0.250315 0.886871
C 4.267853 0.832236 0.089102
C 4.247154 0.649418 -1.296750
C 3.234257 -0.119874 -1.879027
C 2.249972 -0.708203 -1.080527
H -3.904334 -3.176080 -1.559022
H -0.869628 -2.911780 -0.171067
H -4.075617 0.168906 -0.730826
H -3.518206 3.748437 0.425851
H -1.367637 2.966901 1.100986
H 0.337064 1.194176 1.327815
H 1.561417 -2.235035 1.426163
H 1.123555 -0.678190 2.152508
H 3.295365 0.404997 1.970570
H 5.052702 1.436777 0.551451
H 5.016613 1.109072 -1.922544
H 3.210019 -0.263941 -2.962484
H 1.458736 -1.307381 -1.537901