25
Extracted from mol_1181.out
O -0.600983 3.511164 -1.141915
B 0.049216 2.424669 -0.634488
O 1.413795 2.537145 -0.504078
C -0.673153 1.090407 -0.214770
C -2.080522 1.104307 -0.095335
C -2.819752 -0.020139 0.246457
C -2.137543 -1.224210 0.480759
C -2.894534 -2.454038 0.842175
O -4.097608 -2.508062 0.955143
C -0.745010 -1.286569 0.383445
C 0.001728 -0.138828 0.047082
N 1.400285 -0.176498 -0.039606
C 2.257197 -1.247488 0.129194
O 1.901516 -2.384825 0.377781
C 3.725028 -0.869491 -0.014949
H -1.545198 3.385098 -1.290714
H 1.740163 3.395303 -0.809313
H -2.621315 2.042243 -0.264251
H -3.907347 0.004150 0.338451
H -2.255568 -3.359821 1.008892
H -0.217035 -2.221231 0.567174
H 1.831975 0.725701 -0.231034
H 4.328373 -1.784049 0.034972
H 3.915767 -0.353838 -0.970207
H 4.030525 -0.191101 0.799132