29
Extracted from mol_512.out
O 0.827595 2.504550 1.006891
B -0.388024 1.913480 1.190797
O -1.263827 2.519321 2.044288
C -0.899117 0.609973 0.448055
C -2.294269 0.425835 0.399704
C -2.878047 -0.620964 -0.317116
C -4.374262 -0.812761 -0.304151
F -5.030066 0.346697 -0.124553
F -4.760528 -1.639214 0.688704
F -4.818448 -1.354698 -1.454299
C -2.062900 -1.518259 -1.015683
C -0.678834 -1.365962 -0.970554
C -0.079833 -0.322552 -0.240537
C 1.413725 -0.262373 -0.210890
C 2.154236 -0.206745 -1.407528
C 3.551891 -0.189537 -1.385766
C 4.236699 -0.236042 -0.167431
C 3.514886 -0.298319 1.029087
C 2.117767 -0.310796 1.008407
H 1.422534 2.015585 0.423801
H -0.891435 3.326657 2.423941
H -2.933089 1.137608 0.925400
H -2.508225 -2.334439 -1.588674
H -0.042454 -2.082786 -1.495445
H 1.624229 -0.164074 -2.362783
H 4.107620 -0.137272 -2.325829
H 5.329619 -0.225029 -0.150002
H 4.042014 -0.343624 1.985746
H 1.560541 -0.374260 1.946419