23
Extracted from mol_1149.out
O 4.593554 0.730956 -0.324483
B 3.707468 -0.293721 -0.124484
O 4.205950 -1.514451 0.217167
C 2.146909 -0.136014 -0.261728
C 1.546126 0.995175 -0.844582
C 0.159548 1.117786 -0.934869
C -0.684594 0.102386 -0.461489
N -2.086276 0.212878 -0.571675
C -2.971132 0.047857 0.486278
O -2.604915 -0.208001 1.611858
C -4.435030 0.178636 0.096065
C -0.083941 -1.043252 0.090340
F -0.854779 -2.061427 0.481882
C 1.296424 -1.156508 0.202012
H 4.179795 1.584283 -0.497052
H 5.168944 -1.503154 0.300271
H 2.162295 1.809225 -1.241196
H -0.289999 2.014949 -1.369573
H -2.446761 0.609890 -1.431781
H -5.016712 0.425939 0.993242
H -4.606489 0.942553 -0.679178
H -4.794996 -0.788045 -0.294196
H 1.708608 -2.067940 0.640436