31
Extracted from mol_241.out
O -0.607385 -2.608786 0.066652
B 0.101672 -1.628932 -0.573919
O 0.794973 -1.837916 -1.736149
C 0.117852 -0.181714 0.060585
C 1.343729 0.326132 0.520323
O 2.435723 -0.541288 0.430286
C 3.582851 -0.171132 -0.212929
O 3.784504 0.926021 -0.655082
C 4.525065 -1.346327 -0.290464
C 1.470579 1.583027 1.108409
C 0.323576 2.368705 1.236969
C -0.910781 1.895448 0.789711
C -1.034469 0.624643 0.202824
C -2.400852 0.143712 -0.283709
C -3.383521 -0.053724 0.884184
C -2.988141 1.068557 -1.364497
H -0.593106 -3.479443 -0.350840
H 0.765868 -2.739056 -2.081845
H 4.098787 -2.098965 -0.973157
H 4.633066 -1.820719 0.696376
H 5.499487 -1.014704 -0.669284
H 2.442147 1.937755 1.452384
H 0.396215 3.360378 1.691834
H -1.794209 2.529707 0.900113
H -2.256323 -0.846296 -0.744853
H -3.585016 0.896134 1.407022
H -4.348717 -0.444952 0.520851
H -2.981874 -0.765998 1.621635
H -3.203326 2.074460 -0.967521
H -3.935162 0.658920 -1.754327
H -2.293211 1.186357 -2.211251