21
Extracted from mol_718.out
O 0.500488 2.819396 0.834525
B -0.321367 2.324713 -0.122429
O -0.885237 3.225733 -0.981592
C -0.623915 0.763071 -0.238337
C -1.714551 0.289719 -0.996135
C -2.000072 -1.070653 -1.097083
C -1.199515 -2.000225 -0.427097
C -0.119882 -1.569405 0.350595
O 0.676570 -2.426867 1.044197
C 0.163538 -0.188281 0.437832
O 1.192993 0.237636 1.252465
C 2.522431 -0.070898 0.833337
H 0.863264 2.083123 1.356712
H -1.400688 2.817470 -1.685047
H -2.367847 1.001613 -1.510853
H -2.850228 -1.416949 -1.690209
H -1.418525 -3.071500 -0.492339
H 0.365816 -3.332213 0.910632
H 3.197357 0.366184 1.582482
H 2.737026 0.376990 -0.153002
H 2.682343 -1.158654 0.791346