25
Extracted from mol_1247.out
O -3.928824 -1.228757 -1.241115
B -2.685613 -1.384043 -0.749289
O -2.209138 -2.655010 -0.560748
C -1.638356 -0.220525 -0.386715
C -1.816203 1.171254 -0.178079
N -3.114917 1.861894 -0.289976
O -4.016426 1.360896 -0.966229
O -3.241635 2.933042 0.273250
C -0.747110 2.009803 0.164849
C 0.545338 1.519380 0.293685
C 0.768576 0.144019 0.097999
N 2.024235 -0.459887 0.210418
C 3.249181 0.119854 0.513958
O 3.393287 1.304996 0.732752
C 4.398842 -0.874300 0.553508
C -0.324075 -0.683585 -0.223497
H -4.153584 -0.279244 -1.315268
H -2.873756 -3.307880 -0.818607
H -0.946926 3.068290 0.327290
H 1.374905 2.176134 0.543407
H 2.030318 -1.460561 0.044815
H 4.249842 -1.612066 1.359627
H 5.328782 -0.323583 0.739053
H 4.484550 -1.425275 -0.397601
H -0.151292 -1.754847 -0.350419