34
Extracted from mol_194.out
O 2.262029 1.983237 -1.724888
B 1.208498 2.064501 -0.861530
O 0.724977 3.318373 -0.580919
C 0.538479 0.763907 -0.270124
C -0.870597 0.753390 -0.213461
C -1.614614 -0.344345 0.242219
C -3.138229 -0.326089 0.276712
C -3.680142 0.735823 1.250363
C -3.748318 -0.157854 -1.126146
C -0.892644 -1.466477 0.668544
C 0.503615 -1.479596 0.638912
C 1.246236 -0.382530 0.175461
C 2.773072 -0.453303 0.154173
C 3.270099 -1.269786 -1.053615
C 3.369882 -0.984636 1.468563
H 2.545971 2.859185 -2.022198
H 0.023535 3.311607 0.081452
H -1.413125 1.638977 -0.564024
H -3.457423 -1.312335 0.657878
H -3.276191 0.592556 2.265208
H -3.411197 1.754607 0.923733
H -4.780265 0.688206 1.310906
H -3.394177 -0.941948 -1.813937
H -3.481127 0.817338 -1.566415
H -4.848900 -0.212071 -1.083407
H -1.430724 -2.347214 1.033895
H 1.024063 -2.374804 0.989208
H 3.146785 0.571969 0.017924
H 4.372666 -1.292288 -1.083233
H 2.913708 -0.829446 -1.996875
H 2.912569 -2.312480 -1.003798
H 3.008479 -0.412065 2.338091
H 3.123383 -2.045522 1.639812
H 4.469632 -0.908888 1.446013