22
Extracted from mol_1304.out
O -4.170967 0.664704 0.456964
B -2.850401 0.904061 0.654511
O -2.544194 1.847077 1.589564
C -1.707978 0.129894 -0.144198
C -0.355091 0.225965 0.228111
C 0.665551 -0.447280 -0.457547
C 2.102632 -0.346560 -0.063299
O 3.006561 -0.915805 -0.630108
O 2.290625 0.455725 1.002864
C 3.638675 0.607194 1.449228
C 0.339372 -1.253806 -1.559923
C -0.987739 -1.382843 -1.959667
C -1.968778 -0.697979 -1.245572
F -3.249086 -0.855486 -1.658083
H -4.333940 0.009579 -0.232431
H -1.604715 2.040902 1.670650
H -0.067260 0.835781 1.087627
H 4.267804 1.035497 0.653890
H 4.064423 -0.364466 1.743092
H 3.601214 1.283720 2.312220
H 1.141745 -1.772733 -2.088153
H -1.278453 -2.003143 -2.809737