26
Extracted from mol_462.out
O -2.596215 -1.802748 -1.776662
B -1.559337 -1.462124 -0.956886
O -0.667071 -2.439957 -0.625952
C -1.526522 0.027304 -0.416024
C -2.747851 0.731320 -0.463560
C -2.868783 2.007428 0.086116
I -4.735414 3.028930 -0.004572
C -1.774983 2.621501 0.700660
C -0.556362 1.942227 0.742003
C -0.407333 0.659100 0.186290
C 0.948048 0.029780 0.236950
C 1.611223 -0.364007 -0.942148
C 2.895864 -0.911677 -0.893087
C 3.545029 -1.077193 0.334809
C 2.901283 -0.688732 1.513825
C 1.617289 -0.137950 1.465002
H -2.560512 -2.736425 -2.024903
H 0.065997 -2.134751 -0.075681
H -3.608515 0.250409 -0.931116
H -1.861430 3.620073 1.133482
H 0.308871 2.431430 1.197374
H 1.116746 -0.223608 -1.906609
H 3.394541 -1.204805 -1.820773
H 4.549699 -1.506343 0.372183
H 3.399410 -0.817007 2.478598
H 1.116327 0.157824 2.390680