23
Extracted from mol_147.out
O -3.004008 1.929316 0.037741
B -2.684030 0.594038 0.101267
O -3.644782 -0.385064 0.154850
C -1.161394 0.219578 0.110626
C -0.236463 1.279778 0.055621
C 1.145250 1.085324 0.057291
C 1.651968 -0.220265 0.116174
S 3.375991 -0.642579 0.126242
C 4.215764 0.966092 0.053114
C 0.745669 -1.295427 0.171949
C -0.640319 -1.104976 0.170416
C -1.527685 -2.327872 0.232366
H -3.946556 2.131246 0.032591
H -4.555256 -0.066287 0.145074
H -0.619753 2.302253 0.009729
H 1.808109 1.950391 0.013017
H 5.291182 0.737421 0.061749
H 3.976259 1.510825 -0.872594
H 3.978687 1.590431 0.927745
H 1.139172 -2.315514 0.218120
H -2.192565 -2.388194 -0.643196
H -0.925924 -3.248010 0.275708
H -2.189314 -2.302508 1.111940