22
Extracted from mol_163.out
O -1.485665 -2.532098 0.973119
B -1.647934 -1.504381 0.086223
O -2.671176 -1.417436 -0.810755
C -0.515177 -0.402501 0.049343
C -0.747166 0.986657 0.138404
C -2.145342 1.528709 0.329527
F -2.834812 1.601225 -0.822026
F -2.868459 0.757647 1.173664
F -2.135666 2.770622 0.852315
C 0.319277 1.889494 0.070380
C 1.625517 1.428475 -0.099130
C 1.896270 0.055972 -0.186383
C 3.302905 -0.452378 -0.387536
C 0.813506 -0.833318 -0.096155
H -2.168234 -3.214333 0.948162
H -3.353105 -2.097183 -0.745100
H 0.128091 2.959962 0.164298
H 2.447358 2.148744 -0.150241
H 3.455997 -1.424690 0.106182
H 3.520335 -0.595228 -1.461095
H 4.049921 0.254480 0.005194
H 1.013561 -1.908438 -0.138391