17
Extracted from mol_1349.out
O -2.526256 0.830918 1.527334
B -2.029187 0.115768 0.478740
O -2.938718 -0.563378 -0.256956
C -0.458249 0.135916 0.169651
C 0.234026 -0.886396 -0.533518
C -0.472667 -2.024759 -1.054800
N -1.051527 -2.927955 -1.502595
C 1.622586 -0.810301 -0.758616
C 2.351736 0.286586 -0.307859
C 1.672854 1.301110 0.364460
F 2.354015 2.367646 0.790514
C 0.301418 1.234226 0.602993
H -1.857210 1.219593 2.100329
H -2.593146 -1.107792 -0.975253
H 2.126274 -1.617472 -1.294606
H 3.427451 0.370565 -0.473412
H -0.163399 2.075725 1.123596