16
Extracted from mol_1475.out
O -2.565255 1.493342 -0.037596
B -2.051472 0.234903 -0.091614
O -2.918125 -0.817022 -0.191592
C -0.480773 0.076127 -0.027715
C 0.315269 1.188357 0.304109
C 1.703504 1.061483 0.371138
Br 2.770440 2.576523 0.827956
C 2.339047 -0.156592 0.108185
C 1.544626 -1.255849 -0.227689
Br 2.383839 -2.929165 -0.600300
C 0.153851 -1.149563 -0.296086
H -3.531623 1.496851 -0.065533
H -2.505125 -1.687672 -0.169012
H -0.159299 2.149331 0.507918
H 3.424301 -0.245456 0.161676
H -0.423206 -2.035600 -0.573845