17
Extracted from mol_1543.out
O -2.493123 -1.473711 0.487993
B -1.984707 -0.285047 0.056978
O -2.851325 0.686257 -0.327447
C -0.395943 -0.174901 0.055717
C 0.341491 0.964559 -0.359411
C -0.338760 2.142083 -0.823825
N -0.919079 3.080928 -1.190456
C 1.748525 0.975550 -0.328429
C 2.449717 -0.142552 0.115858
C 1.733099 -1.270978 0.528339
Br 2.679769 -2.804675 1.139821
C 0.336475 -1.289178 0.498959
H -3.459613 -1.480413 0.465938
H -2.473102 1.523806 -0.630825
H 2.290918 1.865648 -0.654456
H 3.540612 -0.138650 0.141818
H -0.204950 -2.178725 0.823424