17
Extracted from mol_778.out
O 2.368054 -1.700017 -1.220061
B 2.103410 -0.655730 -0.392564
O 3.187833 -0.038998 0.156464
C 0.640511 -0.090274 -0.114196
C 0.476234 1.306602 -0.217966
C -0.770677 1.910460 -0.030325
C -1.884411 1.138065 0.278868
C -1.770205 -0.258200 0.403728
O -2.886430 -0.942388 0.715099
C -0.504336 -0.843985 0.196953
I -0.400574 -2.984167 0.432242
H 1.579129 -2.107813 -1.596458
H 2.949058 0.655406 0.781053
H 1.341405 1.926864 -0.469179
H -0.874827 2.994422 -0.126316
H -2.869865 1.582448 0.435264
H -2.684311 -1.892695 0.767394