24
Extracted from mol_1792.out
O -3.160423 -2.079064 -0.188041
B -2.499512 -1.103901 0.503132
O -3.215450 -0.451084 1.449663
C -0.961796 -0.788431 0.197704
C -0.175810 -1.804001 -0.385493
C 1.182608 -1.647042 -0.654358
C 1.824388 -0.444164 -0.336047
C 3.295003 -0.326348 -0.659293
O 3.837667 -1.092989 -1.436328
N 3.971133 0.690738 -0.042849
C 1.066778 0.591835 0.228153
C -0.299163 0.427478 0.497914
S -1.114413 1.820962 1.310861
C -2.236089 2.433869 -0.001922
H -2.648308 -2.462112 -0.908116
H -2.697524 0.257684 1.872550
H -0.636454 -2.769890 -0.617991
H 1.771418 -2.445871 -1.109693
H 3.597222 1.170944 0.764551
H 4.971986 0.732980 -0.198548
H 1.519698 1.561553 0.446429
H -1.667419 2.695404 -0.905327
H -2.711733 3.338862 0.403742
H -3.013805 1.692589 -0.230691