30
Extracted from mol_610.out
O -5.843478 -1.493023 1.071993
B -5.289452 -0.419981 0.431799
O -6.168658 0.456142 -0.116857
C -3.708150 -0.285006 0.320980
C -2.920768 -1.461713 0.359001
C -1.536741 -1.460704 0.258649
C -0.848912 -0.241653 0.114867
O 0.497359 -0.315627 0.029562
C 1.265377 0.880458 -0.113538
C 2.725079 0.511192 -0.170964
C 3.347227 0.251493 -1.400965
C 4.692533 -0.123440 -1.452842
C 5.430512 -0.245635 -0.271234
C 4.818706 0.008648 0.960625
C 3.473631 0.383896 1.008650
C -1.582293 0.953475 0.064256
C -2.977420 0.902344 0.159016
Cl -3.802399 2.467126 0.071328
H -5.199494 -2.040883 1.532811
H -5.732786 1.221604 -0.513295
H -3.425988 -2.428413 0.453862
H -0.958547 -2.386369 0.284397
H 1.068314 1.551072 0.742372
H 0.962502 1.408154 -1.035961
H 2.771963 0.344736 -2.326886
H 5.166558 -0.319767 -2.418216
H 6.483681 -0.536600 -0.310330
H 5.391950 -0.084050 1.886911
H 2.997410 0.581201 1.973642
H -1.097713 1.921323 -0.050659