18
Extracted from mol_1400.out
O 3.399604 0.181960 0.370667
B 2.294379 -0.584525 0.125706
O 2.460521 -1.920535 -0.060989
C 0.824939 -0.007451 0.051878
C -0.275396 -0.879108 0.062819
C -1.588444 -0.387312 0.006061
C -2.744874 -1.324783 0.025683
O -2.652452 -2.527307 0.095290
C -1.822780 0.993402 -0.071430
C -0.735464 1.867799 -0.090343
Cl -1.008770 3.592856 -0.193723
C 0.571400 1.375889 -0.028358
H 3.217901 1.109736 0.558039
H 3.385145 -2.191194 0.020418
H -0.125737 -1.959581 0.116518
H -3.747901 -0.824425 -0.030051
H -2.842596 1.384001 -0.117976
H 1.390527 2.100579 -0.056391