18
Extracted from mol_1352.out
O 2.593827 -1.368863 1.234043
B 2.306125 -0.454458 0.277891
O 3.329052 0.073772 -0.460873
C 0.811109 0.033121 0.080658
C 0.531532 1.393166 -0.141411
C -0.773670 1.868867 -0.305939
C -1.838755 0.974023 -0.260568
C -1.593553 -0.383375 -0.031817
N -2.754409 -1.292918 0.025850
O -2.636998 -2.327608 0.656092
O -3.767603 -0.928789 -0.552583
C -0.278965 -0.849717 0.134758
F -0.040929 -2.144696 0.294602
H 3.537035 -1.581508 1.268029
H 3.045038 0.658136 -1.173386
H 1.362372 2.105131 -0.174260
H -0.959444 2.932598 -0.469460
H -2.871764 1.293121 -0.401627