22
Extracted from mol_1041.out
O -2.739119 1.699768 0.297200
B -1.552530 1.268096 -0.213738
O -0.720192 2.196276 -0.764203
C -1.086095 -0.252542 -0.200527
C -1.890024 -1.346303 -0.569112
Br -3.718788 -1.070917 -1.112807
C -1.429786 -2.664586 -0.577152
C -0.113666 -2.922553 -0.186734
C 0.720829 -1.878648 0.211334
C 0.226830 -0.573605 0.199826
O 1.014837 0.466880 0.668526
C 2.134553 0.847700 -0.030113
O 2.562283 0.243467 -0.972640
C 2.694016 2.114945 0.557180
H -3.332595 0.986761 0.567701
H -1.122834 3.076148 -0.750511
H -2.091273 -3.476247 -0.883233
H 0.259194 -3.949942 -0.188233
H 1.747179 -2.065570 0.528914
H 2.000768 2.937665 0.319918
H 2.756847 2.040955 1.652902
H 3.679565 2.322250 0.122972