20
Extracted from mol_832.out
O -2.626842 1.789394 -0.372429
B -2.067808 0.686660 0.219025
O -2.862065 -0.112534 0.974961
C -0.515498 0.399753 0.123150
C 0.370986 1.429755 0.484621
C 1.757859 1.264284 0.469600
C 2.305764 0.041200 0.065218
O 3.639204 -0.193624 0.018238
C 1.449757 -0.999347 -0.324906
C 0.067032 -0.820727 -0.289184
C -0.810030 -1.980120 -0.718405
F -1.856640 -1.558137 -1.460197
F -0.134086 -2.869519 -1.470482
F -1.309281 -2.654623 0.327926
H -2.013477 2.270150 -0.940572
H -3.786654 0.171212 0.954914
H -0.032078 2.395513 0.805847
H 2.415343 2.086629 0.770547
H 4.120618 0.592952 0.307947
H 1.887896 -1.938870 -0.662855