23
Extracted from mol_138.out
O -2.132384 -2.397313 -0.318621
B -2.232650 -1.048949 -0.098947
O -3.438288 -0.398768 -0.032622
C -0.886841 -0.250297 0.079409
C 0.303827 -0.996706 0.021052
C 1.570502 -0.413764 0.153909
C 2.774565 -1.314249 0.074561
O 2.690791 -2.523795 0.207811
N 3.980251 -0.693221 -0.142127
C 1.643791 0.967275 0.382546
C 0.477084 1.728705 0.451887
C -0.794920 1.152708 0.299263
C -2.006499 2.051265 0.383475
H -2.964386 -2.874382 -0.415041
H -4.213793 -0.960631 -0.150567
H 0.258204 -2.076204 -0.133273
H 4.028343 0.241149 -0.525913
H 4.777481 -1.301867 -0.289342
H 2.608328 1.458454 0.538556
H 0.553837 2.803935 0.638211
H -2.682633 1.742340 1.195543
H -2.606289 2.008234 -0.538849
H -1.708320 3.096083 0.556804