27
Extracted from mol_359.out
O -1.884350 2.415885 -0.692454
B -0.802211 2.435859 0.132556
O -0.638539 3.524725 0.945839
C 0.256939 1.259531 0.087451
C 1.618584 1.632039 0.060905
C 2.646737 0.695348 -0.019057
C 2.288665 -0.650486 -0.060574
N 3.354910 -1.675193 -0.142133
O 4.510783 -1.283573 -0.170459
O 3.014352 -2.846978 -0.175648
C 0.959156 -1.063485 -0.022112
C -0.076805 -0.119658 0.051780
C -1.525462 -0.604356 0.079556
C -1.999151 -0.992985 -1.333765
C -1.754153 -1.749009 1.080841
H -2.433344 3.206278 -0.588979
H 0.114078 3.456271 1.545527
H 1.885559 2.693486 0.085183
H 3.697949 0.980415 -0.049956
H 0.754995 -2.133422 -0.049839
H -2.147125 0.243746 0.402316
H -1.400226 -1.825634 -1.739939
H -1.918151 -0.140559 -2.024690
H -3.053291 -1.315710 -1.312636
H -1.407504 -1.480149 2.091705
H -1.234302 -2.674039 0.782162
H -2.828092 -1.988343 1.143568