24
Extracted from mol_1765.out
O -0.687919 2.736094 0.248164
B -0.775381 1.573911 0.955395
O -0.784901 1.438119 2.311825
C -0.844310 0.219133 0.099237
C -2.057509 -0.343424 -0.314561
N -3.321627 0.337457 0.052508
O -3.235719 1.366110 0.708084
O -4.371463 -0.160161 -0.315786
C -2.159055 -1.520130 -1.061377
C -0.990379 -2.185939 -1.423984
C 0.246382 -1.666898 -1.036689
C 0.320357 -0.482070 -0.286410
C 1.644406 0.076817 0.128885
O 1.779184 1.091388 0.775762
O 2.683187 -0.665235 -0.291071
C 3.983626 -0.194829 0.066351
H -0.633115 3.537666 0.781304
H -0.726778 2.263386 2.807118
H -3.146521 -1.887026 -1.340884
H -1.043582 -3.107827 -2.007578
H 1.170459 -2.176088 -1.312860
H 4.093287 -0.146389 1.160533
H 4.161749 0.809835 -0.346560
H 4.695619 -0.913901 -0.357403