29
Extracted from mol_25.out
O 3.581947 -2.480374 0.310077
B 3.704022 -1.118644 0.217970
O 4.957926 -0.586846 0.289993
C 2.484809 -0.143329 0.029393
C 2.692551 1.220452 -0.245670
C 1.614430 2.086903 -0.416523
C 0.283266 1.644907 -0.329011
C -0.838984 2.643143 -0.498186
C 0.049205 0.273971 -0.056192
C -1.325321 -0.299335 0.066612
C -1.703525 -0.993877 1.231030
C -2.973949 -1.564736 1.348946
C -3.893307 -1.456693 0.301299
C -3.530786 -0.774431 -0.864457
C -2.261385 -0.201967 -0.979583
C 1.152734 -0.578241 0.122710
H 2.679253 -2.801437 0.202775
H 5.632915 -1.271532 0.389565
H 3.714261 1.601688 -0.319088
H 1.803346 3.146814 -0.613425
H -1.679904 2.436695 0.180695
H -0.480877 3.665843 -0.305500
H -1.247195 2.631409 -1.523520
H -0.993932 -1.072657 2.059185
H -3.247610 -2.093122 2.266431
H -4.887290 -1.902895 0.391825
H -4.238896 -0.692259 -1.693767
H -1.983646 0.311246 -1.903373
H 0.935942 -1.630696 0.339789