22
Extracted from mol_1021.out
O 0.714109 -2.338639 -0.603942
B 1.381098 -1.497612 0.242572
O 2.214677 -1.911655 1.238347
C 1.168260 0.056762 0.055750
C 2.231880 0.925707 -0.206860
F 3.468503 0.406700 -0.321882
C 2.075569 2.298616 -0.380921
C 0.790877 2.838671 -0.281155
C -0.309306 2.019719 -0.015456
C -0.101930 0.647610 0.144284
O -1.146444 -0.206762 0.483768
C -2.268245 -0.300389 -0.295548
O -2.481036 0.391675 -1.251580
C -3.155543 -1.402216 0.224221
H 0.865544 -3.281006 -0.458872
H 2.348959 -2.864929 1.308815
H 2.950105 2.916670 -0.591929
H 0.644405 3.913744 -0.412617
H -1.313208 2.435704 0.062657
H -3.316668 -1.288461 1.306691
H -2.650049 -2.368470 0.066660
H -4.111557 -1.391439 -0.313002