18
Extracted from mol_1402.out
O -2.944271 0.756782 0.174342
B -1.980396 -0.011858 -0.419817
O -2.376659 -0.933354 -1.338724
C -0.443235 0.192975 -0.103236
C 0.026948 1.515465 0.027245
C 1.369520 1.809128 0.270510
C 2.283795 0.757629 0.405283
Cl 3.965685 1.111985 0.716248
C 1.859148 -0.563727 0.296068
C 0.507996 -0.847093 0.039836
C 0.123777 -2.291679 -0.034745
O 0.914581 -3.200008 0.090336
H -2.610766 1.340874 0.865825
H -3.337774 -0.943762 -1.453378
H -0.669918 2.352319 -0.086421
H 1.712460 2.842200 0.354708
H 2.556206 -1.395926 0.409188
H -0.957095 -2.491951 -0.213268