30
Extracted from mol_592.out
O -2.138430 -0.649767 2.926922
B -2.802044 0.029383 1.949671
O -3.873536 0.806043 2.280041
C -2.392948 -0.072686 0.425818
C -3.284328 0.350349 -0.578745
C -2.989538 0.179966 -1.932778
C -1.791440 -0.430590 -2.315097
C -0.896701 -0.848586 -1.333776
F 0.241389 -1.450580 -1.699987
C -1.175451 -0.662372 0.027938
O -0.274107 -1.115248 0.975177
C 0.706415 -0.161623 1.444568
C 1.856659 0.070087 0.494450
C 2.697672 -0.993760 0.128857
C 3.775303 -0.781751 -0.730612
C 4.030651 0.499781 -1.235141
C 3.199766 1.564197 -0.878790
C 2.116001 1.347393 -0.019946
H -1.416628 -1.170624 2.533251
H -4.057720 0.771196 3.228539
H -4.229022 0.809515 -0.278300
H -3.695340 0.511904 -2.698386
H -1.532827 -0.594458 -3.363797
H 1.074404 -0.598506 2.386381
H 0.204945 0.790809 1.685544
H 2.492397 -1.996693 0.512897
H 4.421884 -1.617958 -1.010088
H 4.877179 0.665483 -1.907042
H 3.390942 2.566412 -1.271685
H 1.464453 2.182684 0.254115