25
Extracted from mol_284.out
O 4.446624 0.318190 -0.600150
B 3.172988 0.806460 -0.708181
O 2.990130 1.971106 -1.391191
C 1.906193 0.095066 -0.095102
C 2.023009 -0.999355 0.778881
C 0.876522 -1.605075 1.295909
Br 1.054487 -3.092130 2.486798
C -0.397406 -1.145319 0.961163
C -0.543479 -0.049802 0.091888
C -1.926938 0.468083 -0.284990
C -2.705884 0.977685 0.940133
C -2.738067 -0.578122 -1.069848
C 0.614503 0.552087 -0.418848
H 4.512873 -0.531462 -0.149766
H 3.821445 2.319720 -1.740299
H 3.000931 -1.387931 1.077368
H -1.273617 -1.642434 1.382490
H -1.765859 1.330442 -0.954990
H -2.139120 1.750309 1.483392
H -3.670239 1.414848 0.632806
H -2.924120 0.161631 1.649421
H -2.197334 -0.912204 -1.969488
H -2.949226 -1.469651 -0.455704
H -3.706626 -0.159440 -1.389621
H 0.518207 1.407299 -1.093314