18
Extracted from mol_1631.out
O 2.344118 0.816826 -1.670885
B 1.894078 0.663284 -0.397047
O 2.761585 0.981045 0.600528
C 0.339822 0.363235 -0.089954
C -0.149403 -0.940871 0.099804
N 0.816829 -2.060785 0.008956
O 0.407322 -3.194118 0.176274
O 1.981785 -1.768435 -0.232326
C -1.481309 -1.257426 0.367605
C -2.401272 -0.214406 0.455233
C -1.978051 1.106007 0.276310
C -0.629758 1.378285 0.009023
I -0.080302 3.427043 -0.249531
H 1.693590 0.612756 -2.350470
H 2.400435 0.889514 1.488118
H -1.768117 -2.300179 0.500287
H -3.453023 -0.425124 0.663163
H -2.698330 1.923352 0.344913