24
Extracted from mol_1001.out
O -2.645596 -1.650801 -1.098142
B -2.035346 -1.376084 0.096811
O -2.444752 -1.899460 1.294002
C -0.697777 -0.533506 0.071857
C -0.669692 0.879364 -0.097772
B -1.977050 1.726479 -0.173129
O -3.168009 1.111265 0.136297
O -1.892825 3.051194 -0.521851
C 0.580427 1.517181 -0.159095
C 1.784874 0.816170 -0.052753
C 1.748760 -0.574762 0.124749
O 2.848156 -1.363457 0.245579
C 4.127825 -0.776856 0.194705
C 0.506983 -1.232407 0.186137
H -3.450204 -2.179902 -1.033202
H -3.246255 -2.435886 1.253265
H -3.959558 1.654466 0.046488
H -2.725714 3.536807 -0.518164
H 0.614094 2.602435 -0.290478
H 2.731119 1.356153 -0.105244
H 4.313619 -0.272433 -0.771515
H 4.279992 -0.044815 1.009256
H 4.853058 -1.594075 0.312926
H 0.523868 -2.317067 0.324450