26
Extracted from mol_441.out
O -2.147821 2.617558 -1.234525
B -1.401232 1.878596 -0.360135
O -0.611848 2.593579 0.485597
C -1.531741 0.295021 -0.316738
C -2.816867 -0.254575 -0.498040
C -3.077159 -1.621226 -0.389765
C -2.015702 -2.478582 -0.094642
Cl -2.299929 -4.198628 0.041512
C -0.724922 -1.979047 0.085694
C -0.469318 -0.600619 -0.022182
C 0.936604 -0.131850 0.167207
C 1.561726 0.698668 -0.782458
C 2.884721 1.111935 -0.612741
C 3.610942 0.706143 0.511635
C 3.004815 -0.118800 1.463921
C 1.681812 -0.535879 1.291892
H -2.641540 2.075859 -1.860070
H -0.072627 2.041183 1.063910
H -3.660211 0.412748 -0.704095
H -4.084333 -2.019458 -0.524819
H 0.092414 -2.673030 0.289095
H 1.009943 1.007285 -1.673812
H 3.352078 1.751715 -1.365872
H 4.645953 1.031754 0.644642
H 3.562507 -0.437762 2.348548
H 1.211736 -1.172585 2.046238