26
Extracted from mol_467.out
O -2.956899 2.257599 -0.574058
B -3.433772 0.993685 -0.366539
O -4.776019 0.808211 -0.466882
C -2.337862 -0.116190 -0.048052
C -2.522760 -1.462860 0.318548
I -4.464387 -2.360438 0.579299
C -1.448408 -2.326313 0.553569
C -0.141669 -1.858052 0.423509
C 0.112100 -0.524355 0.059351
C 1.502404 -0.013846 -0.083628
C 1.835183 1.300460 0.297355
C 3.140595 1.778558 0.164497
C 4.144478 0.954293 -0.353572
C 3.830018 -0.352873 -0.737774
C 2.524565 -0.830925 -0.603939
C -0.995408 0.308503 -0.164872
H -3.674397 2.873371 -0.774025
H -5.076014 -0.099509 -0.303944
H -1.623872 -3.362660 0.847691
H 0.687378 -2.538192 0.633632
H 1.066260 1.948906 0.724189
H 3.376119 2.800216 0.474827
H 5.166179 1.328893 -0.457983
H 4.604505 -1.003637 -1.152837
H 2.289434 -1.846466 -0.932444
H -0.827750 1.343619 -0.466608