22
Extracted from mol_1031.out
O 0.640086 3.157421 -0.591890
B 0.091883 1.999276 -0.132088
O -1.227118 2.020101 0.215386
C 0.902252 0.638100 0.022934
C 2.259810 0.558337 0.391306
Cl 3.197179 2.031075 0.689548
C 2.943238 -0.647943 0.553729
C 2.263250 -1.845789 0.327110
C 0.925063 -1.827758 -0.062890
C 0.272206 -0.603004 -0.208869
O -1.031987 -0.594601 -0.676695
C -2.054892 -0.937259 0.173715
O -1.875838 -1.371918 1.276118
C -3.379451 -0.666925 -0.485751
H 1.599566 3.113324 -0.704479
H -1.592361 2.910888 0.118481
H 3.992741 -0.641628 0.851272
H 2.785897 -2.797686 0.449816
H 0.379152 -2.751825 -0.258234
H -4.187413 -1.115909 0.104636
H -3.516142 0.424850 -0.536818
H -3.387123 -1.051129 -1.516342