32
Extracted from mol_254.out
O 0.260356 4.375225 -0.545933
B -0.618999 3.336470 -0.715626
O -1.856885 3.625825 -1.206886
C -0.275583 1.841196 -0.365083
C 1.047636 1.412403 -0.175232
C 1.348953 0.078533 0.143916
N 2.706391 -0.268153 0.306001
C 3.270513 -1.489857 0.614649
O 2.631489 -2.505397 0.814004
C 4.793203 -1.458840 0.675491
C 0.297012 -0.844621 0.283737
C -1.033648 -0.443342 0.097072
C -2.157553 -1.463167 0.251075
C -2.933705 -1.663804 -1.062327
C -3.103068 -1.102111 1.410091
C -1.305289 0.893521 -0.230677
H 1.083698 4.120276 -0.114425
H -1.970406 4.573449 -1.360665
H 1.879185 2.119057 -0.294544
H 3.356733 0.496141 0.163828
H 5.219203 -1.251527 -0.320603
H 5.154473 -0.679665 1.366865
H 5.146848 -2.439142 1.017184
H 0.535654 -1.876302 0.535646
H -1.680514 -2.426053 0.502684
H -3.697673 -2.450771 -0.947437
H -3.451094 -0.739910 -1.370001
H -2.261264 -1.959312 -1.883294
H -3.629250 -0.151770 1.219765
H -3.868508 -1.884083 1.547701
H -2.551927 -0.995432 2.358009
H -2.335981 1.221164 -0.386465