18
Extracted from mol_1634.out
O 2.987370 -1.250734 -0.621340
B 2.433058 -0.337830 0.219635
O 3.264820 0.218719 1.141209
C 0.895674 0.058456 0.130427
C -0.072451 -0.881732 -0.260871
C -1.413324 -0.508699 -0.322615
N -2.423600 -1.517355 -0.729221
O -2.018246 -2.632035 -1.013469
O -3.590536 -1.165814 -0.754439
C -1.849010 0.781977 -0.019775
C -0.886528 1.719203 0.360437
I -1.485873 3.704320 0.820302
C 0.465139 1.363641 0.440487
H 2.397524 -1.555202 -1.320079
H 2.819177 0.775696 1.789009
H 0.189301 -1.912105 -0.507038
H -2.909946 1.019434 -0.087607
H 1.197449 2.120064 0.734948