29
Extracted from mol_368.out
O -3.228068 -0.826003 0.501208
B -2.423104 -0.507468 -0.566229
O -2.758730 -1.038192 -1.774753
C -1.218953 0.513852 -0.458492
C -1.563805 1.840674 -0.782539
C -0.630305 2.876307 -0.730832
C 0.674596 2.589381 -0.338629
C 1.065342 1.281963 0.014736
B 2.558190 1.126781 0.509205
O 2.935643 0.464226 1.652416
O 3.544771 1.744066 -0.200794
C 0.114629 0.228883 -0.061682
C 0.567774 -1.209641 0.227524
C 0.415732 -2.137673 -0.991855
C -0.088775 -1.816194 1.482915
H -2.957425 -0.393728 1.319975
H -3.548818 -1.594472 -1.716763
H -2.588456 2.066780 -1.097145
H -0.919187 3.895938 -1.000560
H 1.417155 3.391546 -0.304713
H 2.193565 0.097291 2.146374
H 4.408337 1.638088 0.222437
H 1.646702 -1.163301 0.436448
H 0.851147 -3.127445 -0.774942
H -0.636094 -2.286992 -1.277647
H 0.937281 -1.721561 -1.868108
H 0.061573 -1.175886 2.369904
H 0.342493 -2.805708 1.707420
H -1.173214 -1.951515 1.355121