22
Extracted from mol_1857.out
O -1.223612 3.282656 1.345668
B -1.449896 2.224038 0.516488
O -2.549379 2.248459 -0.282058
C -0.348260 1.074823 0.524402
C 0.910605 1.417224 1.059327
C 1.996474 0.542858 1.047152
C 1.806647 -0.718942 0.488704
N 2.939460 -1.673385 0.451731
O 3.998326 -1.308059 0.933919
O 2.743201 -2.764713 -0.060112
C 0.579734 -1.125202 -0.029954
C -0.499050 -0.231043 -0.014125
S -2.109692 -0.756658 -0.600265
C -1.720559 -1.992465 -1.880654
H -1.914793 3.953703 1.262865
H -2.645377 1.453696 -0.834088
H 1.033342 2.415058 1.485397
H 2.971020 0.817078 1.449860
H 0.499605 -2.135828 -0.425527
H -0.991008 -1.599424 -2.603099
H -2.671669 -2.192528 -2.394480
H -1.355119 -2.931345 -1.441151