26
Extracted from mol_452.out
O -0.338090 2.584021 -0.084775
B -1.333727 1.860716 0.504428
O -2.288071 2.547009 1.198389
C -1.510995 0.289550 0.396589
C -2.811226 -0.203568 0.627000
C -3.113432 -1.553157 0.450274
Br -4.890117 -2.177874 0.768692
C -2.129526 -2.454242 0.038503
C -0.834637 -1.982571 -0.179096
C -0.502190 -0.627795 0.001118
C 0.921562 -0.223858 -0.210569
C 1.574394 -0.500964 -1.427670
C 2.917267 -0.161317 -1.616295
C 3.636992 0.457506 -0.589410
C 3.004474 0.734322 0.627064
C 1.661508 0.397218 0.815075
H 0.330481 2.046704 -0.529223
H -2.125233 3.499764 1.178155
H -3.592752 0.492016 0.936528
H -2.366923 -3.510828 -0.099341
H -0.054673 -2.689506 -0.473916
H 1.014945 -0.977971 -2.236872
H 3.401992 -0.378873 -2.571866
H 4.687531 0.721912 -0.735813
H 3.561244 1.210031 1.438818
H 1.179201 0.601755 1.774217