23
Extracted from mol_1755.out
O -0.174407 0.617989 2.804683
B -0.689496 1.008795 1.604704
O -1.251739 2.220036 1.330663
C -0.849202 -0.122319 0.490306
C -1.998738 -0.941688 0.437996
C -3.053493 -0.765193 1.403215
N -3.911109 -0.624860 2.173601
C -2.139972 -1.938354 -0.547471
C -1.135529 -2.131172 -1.494874
C 0.009594 -1.334293 -1.463058
C 0.147319 -0.342291 -0.480143
C 1.354216 0.532001 -0.409491
O 1.500215 1.398551 0.427993
O 2.264146 0.271079 -1.358464
C 3.445959 1.074422 -1.347005
H -0.110088 1.309566 3.474491
H -1.167942 2.883614 2.026183
H -3.041274 -2.555319 -0.561192
H -1.246653 -2.904438 -2.258700
H 0.804559 -1.473421 -2.197312
H 4.064406 0.719239 -2.180514
H 3.194795 2.137531 -1.481696
H 3.984433 0.960527 -0.393910