24
Extracted from mol_1122.out
O -3.315677 1.505927 1.213936
B -2.739483 1.077158 0.048992
O -3.203044 1.346271 -1.209151
C -1.664423 -0.092072 0.177311
C -2.053492 -1.432701 0.280283
C -1.100140 -2.447446 0.405763
C 0.260554 -2.138551 0.419920
C 0.686503 -0.813527 0.314046
O 2.034397 -0.571991 0.391854
C 2.707427 -0.134855 -0.734591
O 2.202583 -0.116265 -1.818866
C 4.104112 0.275747 -0.369201
C -0.291614 0.197715 0.197861
N 0.057009 1.624096 0.133829
O -0.882436 2.414214 0.050425
O 1.222539 1.972786 0.181227
H -3.972502 2.205904 1.116590
H -3.857971 2.052177 -1.268531
H -3.116012 -1.688075 0.267466
H -1.416388 -3.490509 0.489534
H 1.022058 -2.915113 0.513388
H 4.573508 -0.475821 0.282393
H 4.047337 1.219538 0.196264
H 4.695156 0.425392 -1.280743