33
Extracted from mol_34.out
O 0.273347 -0.172323 2.888169
B -1.070069 -0.316356 2.777453
O -1.746258 -0.547361 3.944887
C -1.831469 -0.221885 1.381863
C -3.234301 -0.279902 1.315613
C -3.947925 -0.202244 0.119596
C -3.264850 -0.058464 -1.095797
C -4.019640 0.017015 -2.401083
C -1.863816 0.009303 -1.069504
C -1.161225 -0.067631 0.142689
O 0.206993 0.003813 0.195063
C 0.976878 0.146877 -0.999983
C 2.437052 0.184760 -0.628791
C 3.180837 -1.001775 -0.541159
C 4.524967 -0.971686 -0.160373
C 5.139733 0.248053 0.140204
C 4.406428 1.436123 0.058781
C 3.062481 1.403020 -0.322657
H 0.673718 -0.036072 2.015542
H -2.692754 -0.677500 3.831050
H -3.809631 -0.385620 2.242330
H -5.040377 -0.251980 0.129781
H -4.771868 0.823117 -2.380228
H -4.563338 -0.922488 -2.599665
H -3.348252 0.202494 -3.252791
H -1.330996 0.125662 -2.013603
H 0.769301 -0.701814 -1.675441
H 0.684344 1.077003 -1.518955
H 2.701663 -1.957580 -0.772926
H 5.094192 -1.902830 -0.097243
H 6.191412 0.272741 0.437832
H 4.882690 2.391728 0.293347
H 2.490732 2.333803 -0.384000