17
Extracted from mol_753.out
O -2.799918 -1.449794 0.353817
B -2.264150 -0.195728 0.312753
O -3.122847 0.867069 0.414973
C -0.707592 -0.056158 0.155267
C 0.112731 -1.199149 0.152258
C 1.499347 -1.103737 0.017307
C 2.121478 0.144036 -0.123564
O 3.455841 0.316136 -0.259886
C 1.306437 1.290782 -0.124246
F 1.887122 2.491237 -0.261676
C -0.069786 1.193203 0.011871
H -3.760077 -1.426484 0.461875
H -2.694005 1.730061 0.407788
H -0.348408 -2.183664 0.258508
H 2.119439 -2.006749 0.019024
H 3.892747 -0.545930 -0.244184
H -0.628360 2.134870 -0.003924