24
Extracted from mol_1657.out
O -1.368832 -3.172124 0.620657
B -1.525128 -1.921717 0.084933
O -2.721589 -1.592066 -0.440232
C -0.202601 -1.009111 0.132475
C -0.045116 0.387051 -0.126021
C -1.182992 1.279090 -0.528003
O -2.282277 0.922117 -0.917182
O -0.881106 2.579824 -0.440343
C -1.897425 3.506505 -0.833336
C 1.221059 0.997770 -0.017322
C 2.347952 0.259251 0.327312
C 2.221195 -1.110257 0.585405
C 3.417084 -1.914154 0.960414
O 3.403737 -3.098194 1.199538
C 0.960193 -1.714953 0.491699
H -2.187973 -3.679524 0.546968
H -2.734175 -0.665243 -0.763635
H -2.796863 3.381272 -0.212328
H -1.466951 4.504825 -0.688669
H -2.175199 3.355560 -1.887322
H 1.310885 2.065514 -0.212984
H 3.325664 0.745893 0.398315
H 4.371930 -1.325904 1.008900
H 0.888530 -2.781424 0.710761