26
Extracted from mol_1226.out
O -4.015872 -1.646284 -1.072295
B -3.041528 -1.653539 -0.121862
O -3.182984 -2.571606 0.876545
C -1.810271 -0.657059 -0.175629
C -1.954481 0.648852 -0.671486
C -0.857133 1.516840 -0.709260
C -1.063197 2.919283 -1.234170
F -1.544849 2.901184 -2.493386
F -1.961082 3.592722 -0.488953
F 0.068202 3.637664 -1.247022
C 0.405436 1.110895 -0.274445
C 0.574071 -0.197553 0.217107
N 1.810466 -0.694439 0.661458
C 3.040990 -0.058913 0.709281
O 3.218621 1.091137 0.361434
C 4.162524 -0.943510 1.233873
C -0.538480 -1.055651 0.266679
H -3.830027 -1.049979 -1.806694
H -2.541512 -2.460789 1.587016
H -2.930140 1.003988 -1.015156
H 1.257046 1.785027 -0.311323
H 1.793608 -1.657065 0.978842
H 4.337625 -1.795088 0.555314
H 5.077766 -0.342847 1.297861
H 3.921978 -1.348373 2.230780
H -0.396779 -2.074893 0.645487