34
Extracted from mol_656.out
O -4.956596 1.392750 0.787012
B -4.289269 0.794023 -0.278306
O -4.879542 0.620315 -1.527504
C -3.223997 -0.337526 0.134473
C -3.508255 -1.639715 0.562404
C -2.463672 -2.507529 0.887051
C -1.124082 -2.104682 0.790438
C -0.822248 -0.806914 0.358697
O 0.452065 -0.327089 0.227206
C 1.566575 -1.170441 0.510324
C 2.836642 -0.417646 0.199417
C 3.070903 0.063471 -1.099951
C 4.246524 0.754874 -1.399096
C 5.208363 0.968310 -0.404375
C 4.985138 0.491324 0.889661
C 3.802460 -0.193727 1.189634
C -1.883251 0.069032 0.038893
C -1.789171 1.478871 -0.421588
O -2.862244 2.067520 -0.654899
N -0.599468 2.084470 -0.573183
H -5.612524 2.044027 0.512860
H -5.538703 1.291884 -1.737414
H -4.544410 -1.977691 0.644701
H -2.681857 -3.524930 1.225353
H -0.333632 -2.807239 1.054162
H 1.547351 -1.480763 1.569837
H 1.497598 -2.083531 -0.110006
H 2.322869 -0.105109 -1.879951
H 4.417325 1.123962 -2.414011
H 6.130702 1.505961 -0.639722
H 5.730475 0.657052 1.672045
H 3.628366 -0.557323 2.206654
H 0.253875 1.582477 -0.352679
H -0.584310 3.051535 -0.873650