16
Extracted from mol_1289.out
O 3.064211 0.341307 -0.310575
B 2.064514 -0.368181 0.267924
O 2.444704 -1.462827 0.986050
C 0.512352 -0.041738 0.081594
C -0.104767 1.223755 0.109386
I 1.019303 3.013161 0.476356
C -1.482003 1.386655 -0.081615
C -2.290916 0.274512 -0.324293
C -1.697746 -0.984140 -0.363579
F -2.457768 -2.060813 -0.601049
C -0.331134 -1.147735 -0.160290
H 2.765562 1.129355 -0.781666
H 1.714363 -1.898463 1.439254
H -1.932367 2.380147 -0.043785
H -3.366721 0.375403 -0.482494
H 0.078413 -2.160397 -0.211219