25
Extracted from mol_1751.out
O 4.381772 -1.224481 -0.716230
B 3.798865 -0.148193 -0.120974
O 4.631482 0.685288 0.561882
C 2.238486 0.124036 -0.216206
C 1.719076 1.428594 -0.270690
C 0.346990 1.653220 -0.364714
C -0.564511 0.587323 -0.370656
C -2.015379 0.982915 -0.439873
O -2.407756 1.964786 -1.024142
O -2.805941 0.167736 0.265326
C -4.208591 0.436027 0.222541
C -0.064992 -0.734383 -0.337569
C -0.956225 -1.964905 -0.424598
F -1.905768 -1.827510 -1.366565
F -0.236807 -3.055675 -0.761657
F -1.560707 -2.252795 0.736126
C 1.318242 -0.937781 -0.268346
H 3.781273 -1.736114 -1.269843
H 4.170785 1.377488 1.049055
H 2.395181 2.289645 -0.261038
H -0.050730 2.667673 -0.433577
H -4.423832 1.444419 0.606893
H -4.583881 0.365258 -0.809740
H -4.681416 -0.326155 0.853619
H 1.684383 -1.966414 -0.253661