37
Extracted from mol_584.out
O -1.418406 -3.533000 0.522397
B -0.453499 -2.572125 0.326603
O 0.875807 -2.886299 0.233734
C -0.968103 -1.091282 0.209073
C -2.355295 -0.884211 0.269227
C -2.947956 0.383703 0.173205
N -4.356653 0.462538 0.247168
C -5.165025 1.572370 0.180559
O -4.753837 2.710610 0.035541
C -6.654075 1.279632 0.314220
C -2.113211 1.499073 0.010066
C -0.728488 1.326862 -0.051574
C -0.144923 0.053475 0.045283
O 1.196411 -0.146318 -0.007683
C 2.072827 0.942901 -0.178477
C 3.505613 0.456435 -0.217131
C 3.827640 -0.904955 -0.141354
C 5.166764 -1.311212 -0.186526
C 6.192261 -0.370074 -0.307381
C 5.873629 0.990636 -0.382977
C 4.539235 1.399037 -0.337567
H -1.095256 -4.438853 0.587011
H 1.073644 -3.827065 0.319834
H -2.995127 -1.762391 0.396968
H -4.823266 -0.427912 0.368953
H -7.028071 1.770879 1.226383
H -6.906314 0.209290 0.356167
H -7.177108 1.740564 -0.537188
H -2.553885 2.490826 -0.066320
H -0.107463 2.213609 -0.176681
H 1.838045 1.483011 -1.117717
H 1.949754 1.672300 0.647035
H 3.022652 -1.635379 -0.045796
H 5.409397 -2.376166 -0.126363
H 7.236446 -0.692654 -0.342052
H 6.667857 1.736479 -0.476891
H 4.297978 2.465665 -0.396434