25
Extracted from mol_1249.out
O 4.465973 -0.943362 0.063399
B 3.790543 0.238341 0.087201
O 4.512703 1.394469 0.200342
C 2.220559 0.188312 -0.019303
C 1.396218 1.331066 0.037913
C 0.012381 1.269099 -0.057777
C -0.649631 0.030226 -0.221179
N -2.029053 -0.062539 -0.319776
C -2.982155 0.948902 -0.285033
O -2.724982 2.129243 -0.158159
C -4.402240 0.425700 -0.418398
C 0.178851 -1.132671 -0.280455
N -0.366309 -2.488750 -0.449493
O -1.591380 -2.633615 -0.539850
O 0.409409 -3.423850 -0.494945
C 1.572016 -1.039534 -0.179606
H 5.422566 -0.822299 0.129350
H 3.989836 2.203939 0.199521
H 1.840542 2.324853 0.165345
H -0.597398 2.167730 -0.009426
H -2.350075 -1.026256 -0.430863
H -4.522011 -0.160951 -1.343778
H -4.653387 -0.234005 0.428606
H -5.091565 1.278471 -0.431653
H 2.148589 -1.962519 -0.230415