22
Extracted from mol_159.out
O 0.578264 2.563793 -1.012967
B 0.054988 1.836169 0.015425
O -0.477278 2.514994 1.069253
C -0.006955 0.245452 0.036125
C 1.146592 -0.558604 -0.111298
C 2.494644 0.087867 -0.330307
F 2.590248 0.621925 -1.583341
F 2.724727 1.099231 0.527782
F 3.513113 -0.773539 -0.212520
C 1.083941 -1.956473 -0.078806
C -0.149530 -2.582589 0.090724
C -1.302987 -1.810460 0.226794
C -1.254196 -0.407370 0.207258
C -2.538817 0.375883 0.366994
H 1.024648 2.035890 -1.687127
H -0.369282 3.470984 0.962817
H 1.995608 -2.546182 -0.182428
H -0.211135 -3.673566 0.116695
H -2.269796 -2.305859 0.355136
H -2.532636 0.964166 1.297435
H -3.410464 -0.294676 0.384476
H -2.683698 1.092961 -0.458117