22
Extracted from mol_1411.out
O 0.363512 2.672726 -1.416589
B -0.592994 1.748951 -1.610322
O -1.362130 1.886893 -2.735395
C -0.936350 0.545755 -0.591253
C -0.049964 -0.192223 0.243253
C 1.401805 0.143896 0.369927
O 1.902797 1.234958 0.163055
O 2.139351 -0.891793 0.791140
C 3.532804 -0.645175 1.001908
C -0.531363 -1.261713 1.022157
C -1.881338 -1.600208 1.042883
C -2.764421 -0.860302 0.255202
Cl -4.467161 -1.241340 0.269186
C -2.295756 0.180689 -0.550077
H 0.965327 2.418572 -0.688993
H -1.975018 1.159769 -2.884627
H 4.012694 -0.313188 0.069261
H 3.679861 0.132003 1.767135
H 3.961071 -1.598247 1.335484
H 0.170853 -1.828348 1.634241
H -2.247821 -2.420094 1.662806
H -3.025757 0.728420 -1.150382