26
Extracted from mol_73.out
O 1.373845 2.527078 0.303105
B 0.062276 2.181345 0.542769
O -0.705551 3.132389 1.154140
C -0.469704 0.764014 0.127652
C 0.361854 -0.326606 -0.257306
N 1.752366 -0.135333 -0.306805
C 2.750621 -1.039229 -0.603214
O 2.571138 -2.216479 -0.860078
C 4.142299 -0.418004 -0.612482
C -0.224209 -1.568742 -0.576493
C -1.606204 -1.725991 -0.535080
C -2.464867 -0.672483 -0.179827
C -3.962519 -0.859005 -0.150991
C -1.863244 0.545940 0.143415
H 1.578413 3.416570 0.623176
H -1.596467 2.837942 1.375917
H 2.047999 0.820149 -0.118109
H 4.291097 0.287296 0.220489
H 4.298662 0.133805 -1.554919
H 4.885103 -1.223451 -0.553671
H 0.423961 -2.396284 -0.854867
H -2.030058 -2.702055 -0.792892
H -4.258721 -1.632142 0.578898
H -4.349204 -1.181251 -1.132862
H -4.481946 0.072422 0.122326
H -2.526941 1.378107 0.408652