26
Extracted from mol_1081.out
O 0.039320 2.052222 1.480371
B -0.516691 1.503245 0.364852
O -1.003103 2.239320 -0.689984
C -0.585095 -0.076132 0.263139
C -1.705561 -0.890934 0.541096
C -3.059411 -0.359178 0.956266
O -3.840128 -1.037899 1.602200
N -3.359904 0.923790 0.576110
C -1.593950 -2.289073 0.482284
C -0.393014 -2.889738 0.111583
C 0.726716 -2.108427 -0.185925
C 0.611223 -0.720575 -0.092457
O 1.664274 0.142826 -0.405996
C 2.954080 -0.080745 -0.009379
O 3.323089 -1.063518 0.571678
C 3.817618 1.091087 -0.404149
H 0.051778 3.016873 1.518404
H -0.904095 3.197469 -0.614396
H -2.869825 1.380310 -0.186188
H -4.300766 1.235221 0.791843
H -2.471620 -2.885477 0.737056
H -0.319149 -3.978844 0.055080
H 1.672992 -2.567473 -0.466600
H 3.669446 1.336801 -1.466476
H 3.521767 1.974986 0.183571
H 4.870010 0.853866 -0.206835