19
Extracted from mol_1334.out
O -2.921905 1.556313 -0.238455
B -2.532846 0.266146 -0.435782
O -3.488128 -0.588461 -0.877298
C -1.027796 -0.194110 -0.170211
C 0.009871 0.739569 -0.011109
C 1.336241 0.354975 0.218947
C 2.389622 1.423343 0.381891
F 3.615497 0.905142 0.557235
F 2.129273 2.212098 1.442526
F 2.440884 2.230662 -0.694431
C 1.663475 -1.002622 0.295367
C 0.664520 -1.963605 0.134207
C -0.639909 -1.540490 -0.098076
F -1.579509 -2.500208 -0.264248
H -2.252992 2.127944 0.151912
H -3.170695 -1.494983 -0.968707
H -0.212837 1.808618 -0.081565
H 2.695300 -1.308061 0.475569
H 0.881934 -3.032270 0.182228