23
Extracted from mol_1798.out
O -2.954116 -0.438497 1.424376
B -2.597709 0.187229 0.264055
O -3.585189 0.623533 -0.562445
C -1.101819 0.559016 -0.120023
C -0.873509 1.882501 -0.534203
C 0.414052 2.346628 -0.809138
C 1.506009 1.500273 -0.634682
C 1.328608 0.178793 -0.198161
C 2.616944 -0.599874 0.018880
O 3.510013 -0.583264 -0.807277
N 2.742386 -1.207128 1.234008
C 0.016246 -0.300374 0.002036
C -0.238933 -1.763413 0.304437
F 0.694905 -2.582413 -0.185764
F -0.288124 -1.985797 1.659027
F -1.416215 -2.184672 -0.183171
H -2.217121 -0.754872 1.960749
H -4.462595 0.399154 -0.221770
H -1.728885 2.552116 -0.652125
H 0.567363 3.373199 -1.152299
H 2.522767 1.844946 -0.834214
H 3.567508 -1.775547 1.390797
H 1.977415 -1.271538 1.892765