35
Extracted from mol_198.out
O 3.935951 -0.120107 0.439127
B 3.448107 0.894107 -0.345221
O 4.250775 1.631008 -1.178454
C 1.932045 1.317767 -0.243103
C 1.710623 2.707397 -0.209200
C 0.432030 3.234588 -0.044455
C -0.642365 2.359270 0.086654
C -0.468010 0.962807 0.043255
C -1.726670 0.158431 0.206912
C -2.654657 0.066984 -0.846175
C -3.863708 -0.615057 -0.683300
C -4.175871 -1.209785 0.543512
C -3.274034 -1.106763 1.606544
C -2.063865 -0.425168 1.440128
C 0.830749 0.419655 -0.142607
C 1.107202 -1.085132 -0.295442
C 0.231051 -1.806581 -1.336075
C 1.128472 -1.846427 1.043689
H 4.879562 -0.301762 0.347166
H 5.188377 1.402651 -1.162757
H 2.564217 3.381933 -0.316022
H 0.271579 4.315834 -0.016533
H -1.652543 2.753773 0.227514
H -2.416067 0.530136 -1.807371
H -4.566179 -0.680670 -1.518962
H -5.121535 -1.743129 0.672821
H -3.515322 -1.552870 2.575426
H -1.375423 -0.328942 2.283063
H 2.132944 -1.148466 -0.683246
H 0.664355 -2.797161 -1.555390
H 0.184118 -1.245351 -2.283549
H -0.798373 -1.970141 -0.988601
H 1.502560 -2.872747 0.887307
H 1.795308 -1.353921 1.767156
H 0.124596 -1.926159 1.486190