24
Extracted from mol_1120.out
O -1.106935 3.112173 0.451359
B -0.273645 2.043029 0.622899
O 0.864388 2.225472 1.345593
C -0.632834 0.606746 0.063421
C -1.971887 0.186985 0.028672
C -2.303069 -1.093979 -0.410899
N -3.721499 -1.503234 -0.428833
O -4.551396 -0.680139 -0.073610
O -3.977196 -2.637390 -0.799883
C -1.328361 -1.998249 -0.835922
C 0.005151 -1.597705 -0.823663
C 0.338704 -0.312102 -0.381136
O 1.645592 0.123955 -0.440790
C 2.618262 -0.476799 0.327614
O 2.419969 -1.456629 0.987374
C 3.901896 0.297377 0.215135
H -1.867919 2.943737 -0.116771
H 0.941072 3.136227 1.663817
H -2.781781 0.837726 0.363210
H -1.626867 -2.991470 -1.171236
H 0.790915 -2.276022 -1.157481
H 4.143866 0.492030 -0.840290
H 3.761069 1.273444 0.706283
H 4.712504 -0.255180 0.705137