35
Extracted from mol_204.out
O 1.279057 3.555517 2.491041
B 0.208377 3.459973 1.651888
O -0.583334 4.567833 1.500373
C -0.046415 2.094224 0.911291
C 0.911534 1.069664 0.983381
C 0.729876 -0.160163 0.326477
C 1.758001 -1.234282 0.411291
C 2.468523 -1.464121 1.605330
C 3.431926 -2.472126 1.687400
C 3.709916 -3.274862 0.576558
C 3.014729 -3.058605 -0.617291
C 2.050886 -2.050730 -0.698119
C -0.451449 -0.349838 -0.412911
C -1.436773 0.644554 -0.507755
C -2.719629 0.412610 -1.298946
C -2.442139 0.162343 -2.791787
C -3.574615 -0.714820 -0.693160
C -1.212442 1.855446 0.160635
H 1.354408 4.436963 2.880348
H -1.297290 4.456185 0.862355
H 1.828249 1.250435 1.548871
H 2.247260 -0.858992 2.487842
H 3.963963 -2.635653 2.628665
H 4.464375 -4.063525 0.640607
H 3.229712 -3.673074 -1.495955
H 1.534305 -1.877572 -1.645527
H -0.614811 -1.311723 -0.906034
H -3.308375 1.344471 -1.226816
H -3.385691 0.065359 -3.354111
H -1.869092 -0.767376 -2.944231
H -1.863302 0.987550 -3.236272
H -3.055784 -1.686544 -0.745928
H -3.805574 -0.517755 0.365706
H -4.528095 -0.817748 -1.237478
H -1.990288 2.626383 0.092262