19
Extracted from mol_1332.out
O -3.501808 0.346590 -0.287018
B -2.475242 -0.435390 0.148604
O -2.757685 -1.622065 0.751851
C -1.009867 0.114024 -0.088565
C -0.805830 1.357524 -0.720224
C 0.473593 1.867606 -0.942860
C 1.595001 1.139969 -0.535297
C 1.439979 -0.099139 0.095625
C 2.632277 -0.910583 0.545560
F 2.677719 -2.107658 -0.063405
F 3.786765 -0.278679 0.270061
F 2.608588 -1.138705 1.869602
C 0.140774 -0.575746 0.299906
F 0.006325 -1.778672 0.911011
H -4.362288 -0.055181 -0.105792
H -1.968458 -2.107527 1.025946
H -1.685008 1.923318 -1.037308
H 0.603483 2.834121 -1.435071
H 2.601684 1.526191 -0.702627