33
Extracted from mol_420.out
O -3.320984 -0.788427 0.865186
B -2.800370 -1.655976 -0.053444
O -3.664110 -2.540735 -0.634385
C -1.278070 -1.749684 -0.476869
C -0.863333 -2.944115 -1.097688
C 0.467724 -3.141959 -1.459806
C 1.423229 -2.153306 -1.228617
C 1.039853 -0.943231 -0.623975
N 1.959388 0.102537 -0.397242
C 3.314236 0.149968 -0.650527
O 3.961046 -0.767243 -1.121829
C 3.961804 1.486959 -0.312679
C -0.312270 -0.741465 -0.238054
C -0.695894 0.565018 0.395742
C -0.384016 0.838639 1.743482
C -0.743340 2.057764 2.330483
C -1.417206 3.026709 1.580447
C -1.730429 2.770690 0.241215
C -1.373861 1.552793 -0.344828
H -2.673463 -0.180766 1.244385
H -4.561939 -2.429985 -0.293735
H -1.605704 -3.721582 -1.288971
H 0.774731 -4.078320 -1.934098
H 2.464469 -2.290719 -1.511050
H 1.554334 0.942472 -0.000982
H 3.357323 2.123720 0.350890
H 4.937005 1.291432 0.155119
H 4.152659 2.036008 -1.249493
H 0.138952 0.081026 2.333959
H -0.498985 2.247372 3.379155
H -1.699357 3.978074 2.038919
H -2.259137 3.522599 -0.350704
H -1.624284 1.353732 -1.390006