17
Extracted from mol_1345.out
O 2.910773 -0.403537 0.559837
B 1.996874 0.567306 0.327663
O 2.474016 1.837389 0.329951
C 0.432639 0.267338 0.060906
C -0.143716 -1.034850 0.044741
C 0.667151 -2.201318 0.275488
N 1.309275 -3.151931 0.462749
C -1.512418 -1.258136 -0.191731
C -2.362785 -0.177758 -0.422942
C -1.846658 1.116936 -0.417346
C -0.486163 1.298859 -0.179241
F -0.053732 2.583280 -0.188528
H 2.611690 -1.320831 0.567613
H 1.801852 2.507576 0.163145
H -1.897708 -2.279331 -0.191764
H -3.426595 -0.343653 -0.607046
H -2.474494 1.992660 -0.593493