23
Extracted from mol_1162.out
O -1.760918 3.036882 -0.075831
B -0.848741 2.054014 0.177016
O 0.372429 2.466053 0.658169
C -1.121348 0.522914 -0.058471
C -2.453439 0.120408 -0.277543
C -2.791569 -1.208200 -0.518500
Br -4.616634 -1.693112 -0.804121
C -1.791850 -2.183287 -0.548990
C -0.463853 -1.825955 -0.327858
C -0.111076 -0.484448 -0.071977
N 1.217995 -0.110438 0.168799
C 2.361255 -0.886349 0.160999
O 2.387671 -2.078676 -0.082546
C 3.620369 -0.099526 0.500974
H -2.580518 2.734790 -0.483825
H 0.425078 3.428249 0.743785
H -3.260460 0.857845 -0.246972
H -2.046960 -3.227443 -0.741272
H 0.320461 -2.579080 -0.348383
H 1.339142 0.873527 0.401105
H 3.736547 0.775143 -0.159569
H 4.487568 -0.761531 0.388527
H 3.578851 0.268220 1.539858