19
Extracted from mol_1534.out
O -2.742028 0.171968 0.752868
B -1.994855 -0.278658 -0.283988
O -2.628807 -0.730675 -1.408528
C -0.419296 -0.374501 -0.127267
C 0.183175 -1.637964 -0.266582
C 1.559676 -1.829167 -0.118607
C 2.368331 -0.726294 0.159201
Br 4.249497 -0.955573 0.355626
C 1.814008 0.549365 0.285832
C 0.431828 0.716702 0.147556
C -0.138184 2.113232 0.297945
F -1.117079 2.341195 -0.603955
F -0.661505 2.318808 1.514908
F 0.799326 3.059488 0.107056
H -3.688014 0.174095 0.549671
H -2.027519 -0.988419 -2.117241
H -0.441153 -2.509863 -0.485672
H 1.998509 -2.823447 -0.220830
H 2.454089 1.409708 0.481439