16
Extracted from mol_1483.out
O -2.570438 -1.109049 1.127382
B -2.107401 -0.192331 0.231227
O -3.046260 0.432038 -0.521356
C -0.534182 0.027185 0.060786
C 0.144256 1.246816 -0.120833
I -0.900622 3.118155 -0.157479
C 1.533875 1.309716 -0.269235
C 2.293416 0.137431 -0.256146
C 1.645840 -1.087739 -0.087337
Br 2.660666 -2.701013 -0.073467
C 0.260600 -1.140487 0.073726
H -1.882681 -1.477578 1.692897
H -2.689832 1.096967 -1.123714
H 2.035477 2.270826 -0.396777
H 3.377340 0.183301 -0.376916
H -0.220056 -2.114237 0.197245