19
Extracted from mol_1692.out
O -2.814541 0.367281 1.135261
B -2.060247 -0.443576 0.348113
O -2.652373 -1.543221 -0.205410
C -0.518170 -0.132812 0.141457
C 0.372521 -1.217345 0.212680
C 1.762034 -1.042539 0.080762
C 2.639371 -2.177449 0.170356
N 3.344341 -3.097316 0.243572
C 2.286034 0.245538 -0.142440
C 1.417780 1.327052 -0.227938
C 0.030487 1.153740 -0.085884
C -0.830047 2.372014 -0.221361
O -0.383124 3.478963 -0.421385
H -3.730207 0.061147 1.207454
H -2.087558 -2.046024 -0.804412
H -0.004883 -2.227369 0.395368
H 3.364192 0.382677 -0.248429
H 1.791050 2.337308 -0.410486
H -1.926661 2.201930 -0.129756