36
Extracted from mol_575.out
O 2.571543 -2.046260 -0.080408
B 1.432470 -1.285657 -0.101720
O 0.272762 -1.912188 -0.434740
C 1.501231 0.257822 0.267430
C 2.713662 0.951564 0.444247
O 3.930489 0.298121 0.331783
C 4.392597 -0.072960 -0.902505
O 3.856272 0.236197 -1.930182
C 5.642259 -0.898195 -0.754884
C 2.778046 2.302297 0.799096
C 1.595503 3.010654 0.984019
C 0.359591 2.383807 0.806786
C 0.320913 1.029456 0.448101
O -0.868045 0.371838 0.252975
C -2.114498 1.045949 0.441133
C -3.231492 0.071100 0.170592
C -3.799494 -0.026039 -1.108581
C -4.811209 -0.954723 -1.368605
C -5.263073 -1.799855 -0.350358
C -4.700893 -1.713197 0.927680
C -3.690516 -0.783350 1.185108
H 2.357840 -2.956272 -0.329974
H -0.482131 -1.303435 -0.372376
H 6.343264 -0.422466 -0.053248
H 5.354861 -1.872679 -0.330587
H 6.111376 -1.040268 -1.736186
H 3.755355 2.771018 0.923971
H 1.628020 4.066991 1.263466
H -0.555684 2.957049 0.946976
H -2.171205 1.426707 1.476206
H -2.176671 1.908242 -0.245680
H -3.446905 0.633196 -1.907363
H -5.247732 -1.018759 -2.368768
H -6.055186 -2.525879 -0.552184
H -5.051655 -2.371667 1.726722
H -3.251666 -0.718159 2.185130