18
Extracted from mol_1577.out
O -3.081713 -1.310348 -0.653755
B -2.375842 -0.174378 -0.400280
O -3.059155 1.007180 -0.322022
C -0.815573 -0.307608 -0.212991
C -0.203367 -1.575661 -0.228212
C 1.174887 -1.726364 -0.063187
C 1.994243 -0.606438 0.121340
I 4.072503 -0.983028 0.358464
C 1.423102 0.684350 0.140052
C 2.158263 1.967346 0.322608
O 3.344672 2.111876 0.484072
C 0.029784 0.793377 -0.028199
H -4.028580 -1.139932 -0.748578
H -2.519680 1.779188 -0.118180
H -0.823566 -2.464013 -0.372957
H 1.618066 -2.723986 -0.078701
H 1.473842 2.857706 0.297002
H -0.381882 1.810733 -0.012722