33
Extracted from mol_678.out
O -3.196913 3.525632 0.359527
B -3.797244 2.359168 -0.004268
O -5.133342 2.384200 -0.296203
C -2.913485 1.053739 -0.072397
C -3.484544 -0.226590 -0.233394
C -2.675736 -1.358092 -0.294426
C -3.270724 -2.734772 -0.459626
F -2.958340 -3.537273 0.577318
F -4.611453 -2.707330 -0.552190
F -2.806248 -3.344691 -1.568449
C -1.278499 -1.251797 -0.199928
C -0.697096 0.012230 -0.037167
O 0.635067 0.235186 0.066086
C 1.538529 -0.867799 0.018140
C 2.945325 -0.345361 0.156747
C 3.518030 -0.170351 1.425293
C 4.810012 0.345207 1.557776
C 5.544213 0.694021 0.419533
C 4.981470 0.525588 -0.849617
C 3.688912 0.010046 -0.978201
C -1.522066 1.151430 0.028012
H -3.814987 4.268909 0.356310
H -5.493902 1.541940 -0.596102
H -4.567225 -0.356620 -0.301188
H -0.670460 -2.154598 -0.253561
H 1.306025 -1.574956 0.835502
H 1.419089 -1.406638 -0.939654
H 2.945355 -0.440976 2.317318
H 5.245919 0.474057 2.552084
H 6.556107 1.095332 0.521580
H 5.551598 0.795856 -1.742457
H 3.250409 -0.118931 -1.972185
H -1.043797 2.124233 0.159788