21
Extracted from mol_716.out
O 3.809201 0.275853 -0.176828
B 2.617139 0.835647 -0.525392
O 2.615983 1.993443 -1.250181
C 1.220463 0.211125 -0.132787
C 0.035204 0.843647 -0.528409
C -1.232776 0.332189 -0.207728
O -2.303771 1.045976 -0.654744
C -3.601297 0.587489 -0.363014
C -1.320215 -0.853398 0.534161
C -0.148112 -1.504628 0.941644
C 1.102497 -0.982851 0.614752
O 2.263656 -1.612348 1.008740
H 3.672695 -0.538647 0.333767
H 3.516070 2.290736 -1.438210
H 0.086659 1.768177 -1.107365
H -4.299287 1.309664 -0.808970
H -3.796288 -0.410956 -0.798277
H -3.789313 0.538355 0.726263
H -2.284498 -1.285283 0.803874
H -0.220941 -2.431269 1.521115
H 2.056931 -2.412918 1.507591