36
Extracted from mol_647.out
O -4.604597 -3.515624 -1.579737
B -3.358874 -3.186684 -1.122260
O -2.458415 -4.192480 -0.932975
C -2.903525 -1.709267 -0.807558
C -3.789631 -0.619053 -0.849438
C -3.340611 0.665844 -0.564050
C -1.999996 0.928010 -0.234377
C -1.690146 2.367706 0.048634
O -2.542072 3.230533 0.065828
O -0.394720 2.639789 0.277579
C -0.091081 4.002469 0.574250
C -1.090946 -0.165630 -0.185787
O 0.195423 0.077845 0.140725
C 1.140863 -0.976042 0.166213
C 2.513834 -0.421952 0.473076
C 2.827378 0.925353 0.246808
C 4.120591 1.397833 0.493665
C 5.112666 0.533243 0.965399
C 4.803839 -0.811488 1.195376
C 3.511316 -1.283771 0.953646
C -1.563924 -1.459560 -0.469618
H -5.187989 -2.761211 -1.721353
H -2.827066 -5.056204 -1.162293
H -4.847218 -0.760226 -1.096344
H -4.020709 1.519187 -0.585774
H -0.652980 4.346663 1.455877
H -0.346118 4.656511 -0.274085
H 0.987787 4.036406 0.772456
H 0.857419 -1.731683 0.922577
H 1.155536 -1.490439 -0.815029
H 2.045324 1.596449 -0.111508
H 4.354286 2.451347 0.315688
H 6.122439 0.905828 1.157524
H 5.570600 -1.494614 1.570833
H 3.275320 -2.335763 1.143981
H -0.884003 -2.309324 -0.427946