29
Extracted from mol_1198.out
O -3.688172 -1.660700 0.089350
B -2.447140 -2.070531 -0.272674
O -2.304709 -3.368286 -0.687420
C -1.104063 -1.212065 -0.224467
C 0.070886 -1.994640 -0.262699
C 1.363933 -1.475971 -0.246692
C 1.539976 -0.082760 -0.217567
N 2.792948 0.551954 -0.213827
C 4.055816 -0.013016 -0.235621
O 4.260168 -1.210869 -0.246635
C 5.181345 1.011908 -0.258604
C 0.398641 0.728823 -0.196888
C -0.901279 0.198426 -0.181498
C -1.940432 1.285225 -0.156326
O -1.726137 2.431949 -0.470946
O -3.164556 0.917242 0.309683
C -4.159291 1.950087 0.358336
H -3.678599 -0.723299 0.347781
H -3.152446 -3.831194 -0.657479
H -0.043663 -3.078715 -0.313412
H 2.233553 -2.129090 -0.266020
H 2.754701 1.565107 -0.205581
H 5.186611 1.559075 -1.216363
H 5.075324 1.750737 0.552669
H 6.135193 0.482316 -0.146645
H 0.502257 1.816268 -0.195954
H -4.326807 2.374159 -0.642191
H -3.840803 2.755715 1.035349
H -5.073252 1.472144 0.732714