27
Extracted from mol_395.out
O 4.830552 0.556076 0.802511
B 3.507220 0.915576 0.775284
O 3.200903 2.214211 1.061977
C 2.336266 -0.072609 0.435241
C 2.537107 -1.444020 0.200899
C 1.471990 -2.288409 -0.104781
C 0.164847 -1.786832 -0.186221
O -0.881071 -2.604952 -0.471122
C -0.088500 -0.411745 0.044026
C -1.461119 0.166968 -0.007096
C -1.865609 1.105222 0.962183
C -3.132208 1.692358 0.914834
C -4.025982 1.355029 -0.105714
C -3.639941 0.423585 -1.074804
C -2.375073 -0.166218 -1.025568
C 1.013366 0.401929 0.349810
H 4.995459 -0.364253 0.569320
H 3.992021 2.737724 1.246263
H 3.539909 -1.883131 0.255690
H 1.644171 -3.356152 -0.279459
H -0.561651 -3.513042 -0.558788
H -1.182839 1.365642 1.774818
H -3.423124 2.413373 1.683847
H -5.018115 1.812960 -0.144213
H -4.329147 0.153709 -1.879940
H -2.088336 -0.890573 -1.788705
H 0.838905 1.467574 0.515227