30
Extracted from mol_607.out
O 5.600510 -0.244597 -0.765214
B 4.265102 -0.433157 -1.002216
O 3.772634 -1.110292 -2.087974
C 3.239117 0.157997 0.024650
C 3.670417 0.863231 1.159417
C 2.745655 1.385530 2.067285
C 1.379265 1.209843 1.853163
Cl 0.228485 1.862990 2.989799
C 0.909736 0.504543 0.720565
O -0.431775 0.379387 0.587916
C -0.959098 -0.326820 -0.531260
C -2.463580 -0.325387 -0.434071
C -3.133396 -1.340262 0.265094
C -4.525716 -1.324448 0.383234
C -5.265164 -0.288460 -0.196507
C -4.606877 0.730062 -0.893093
C -3.214335 0.710582 -1.008885
C 1.854645 -0.010681 -0.177238
H 6.202341 -0.622110 -1.417277
H 4.430947 -1.459685 -2.699917
H 4.739142 1.005474 1.335293
H 3.071629 1.935348 2.952595
H -0.632119 0.158601 -1.469033
H -0.573191 -1.362627 -0.536467
H -2.556688 -2.149860 0.722106
H -5.035488 -2.122960 0.929089
H -6.354792 -0.275593 -0.106546
H -5.180166 1.542349 -1.348027
H -2.701269 1.510068 -1.551530
H 1.524028 -0.559064 -1.059696