19
Extracted from mol_1694.out
O 2.995575 1.408487 0.010728
B 2.273140 0.262571 0.200703
O 2.808676 -0.939784 0.535650
C 0.706846 0.385321 0.021031
C 0.168170 1.666861 -0.194724
C -1.203813 1.882023 -0.354662
C -2.079815 0.801945 -0.304578
C -1.593406 -0.496132 -0.097098
C -2.581125 -1.617195 -0.056655
O -3.772681 -1.453670 -0.191777
C -0.200128 -0.706705 0.065921
C 0.254411 -2.061694 0.266219
N 0.550291 -3.175747 0.406066
H 3.949002 1.331592 0.133791
H 3.767188 -0.987245 0.630051
H 0.855834 2.514471 -0.235982
H -1.584934 2.893387 -0.518397
H -3.158763 0.925830 -0.424597
H -2.154468 -2.634318 0.108309