29
Extracted from mol_1195.out
O 4.433733 -1.983577 -1.274405
B 3.777799 -0.960790 -0.642555
O 4.514349 0.057086 -0.124738
C 2.205841 -0.910852 -0.494573
C 1.413174 -2.068734 -0.632786
C 0.033326 -1.997998 -0.504290
C -0.612982 -0.774379 -0.241684
C -2.092462 -0.741466 -0.116912
O -2.763806 0.254621 0.112247
O -2.666568 -1.943570 -0.283110
C -4.089293 -1.993526 -0.177204
C 0.173414 0.410780 -0.098293
N -0.466831 1.621761 0.161721
C 0.073855 2.887516 0.310492
O 1.259529 3.147303 0.240722
C -0.980231 3.954378 0.572532
C 1.575796 0.310318 -0.223183
H 3.847478 -2.630920 -1.683003
H 5.460224 -0.053064 -0.291274
H 1.874841 -3.043287 -0.823236
H -0.578107 -2.895031 -0.603223
H -4.561188 -1.348572 -0.934121
H -4.420170 -1.660564 0.818424
H -4.368747 -3.041709 -0.341221
H -1.483379 1.530009 0.231935
H -1.565026 3.718238 1.476668
H -0.476687 4.919814 0.703892
H -1.686163 4.021607 -0.271712
H 2.168279 1.214609 -0.104955