29
Extracted from mol_24.out
O -0.204778 3.761511 0.767491
B -0.541197 2.550565 0.228444
O -1.776545 2.446470 -0.346799
C 0.551285 1.409991 0.269754
C 1.887572 1.813535 0.468162
C 2.952625 0.915963 0.416185
C 2.726657 -0.444320 0.157348
C 3.871710 -1.423121 0.063071
C 1.401459 -0.862774 -0.024600
C 0.316905 0.029925 0.034300
C -1.056932 -0.539737 -0.127113
C -1.396569 -1.288718 -1.270760
C -2.667076 -1.855699 -1.408414
C -3.623829 -1.690677 -0.402010
C -3.300644 -0.954291 0.742442
C -2.031467 -0.385509 0.878783
H -0.920006 4.402781 0.659323
H -1.980074 1.562409 -0.678475
H 2.086593 2.870824 0.659388
H 3.974097 1.274664 0.576812
H 3.551908 -2.448039 0.306560
H 4.289247 -1.444920 -0.959562
H 4.694536 -1.149157 0.741896
H 1.198305 -1.924797 -0.192251
H -0.654983 -1.415609 -2.064002
H -2.911021 -2.426738 -2.308425
H -4.617072 -2.134802 -0.508354
H -4.039044 -0.826099 1.538571
H -1.781662 0.176370 1.782236