39
Extracted from mol_212.out
O -1.851321 4.561125 0.202456
B -1.461596 3.383338 0.772740
O -0.953013 3.399118 2.040043
C -1.665432 2.045008 -0.037610
C -2.590747 2.011288 -1.095177
C -2.920533 0.808738 -1.722062
C -2.342437 -0.382539 -1.280443
C -1.397732 -0.407611 -0.239598
C -0.840316 -1.727379 0.281813
C -1.898046 -2.463284 1.126878
C -0.290904 -2.632137 -0.832412
C -1.054652 0.828287 0.342919
O -0.124159 0.852004 1.381980
C 1.189416 1.366928 1.068294
C 2.107110 0.372230 0.397166
C 2.743474 -0.629107 1.149845
C 3.598111 -1.548130 0.537497
C 3.832288 -1.476187 -0.840851
C 3.207462 -0.482826 -1.599880
C 2.349262 0.434283 -0.983227
H -1.728391 5.304234 0.808645
H -0.725874 2.494363 2.313965
H -3.068304 2.944086 -1.405744
H -3.644607 0.793115 -2.541221
H -2.631867 -1.323232 -1.756918
H -0.005766 -1.479606 0.951766
H -2.254358 -1.834440 1.958179
H -1.479355 -3.389243 1.555994
H -2.775382 -2.742682 0.519049
H -1.085857 -2.970283 -1.517958
H 0.475126 -2.113685 -1.429179
H 0.171262 -3.534707 -0.399973
H 1.089614 2.270663 0.445695
H 1.609405 1.669828 2.039475
H 2.568110 -0.683819 2.228582
H 4.089414 -2.319381 1.136892
H 4.505581 -2.191681 -1.320592
H 3.389683 -0.418698 -2.675998
H 1.865333 1.212026 -1.581033