19
Extracted from mol_1616.out
O -2.279535 -2.016781 0.253819
B -1.894823 -0.749751 -0.088438
O -2.848188 0.171166 -0.369815
C -0.365155 -0.370600 -0.270424
C 0.396347 -1.118192 -1.186378
C 1.744190 -0.843183 -1.437142
C 2.363805 0.196976 -0.742062
I 4.413578 0.632568 -1.092744
C 1.648298 0.951108 0.191416
C 0.295901 0.668564 0.417078
C -0.451933 1.514646 1.428299
F -1.302080 0.764219 2.161882
F -1.175684 2.480268 0.844230
F 0.384627 2.117209 2.292964
H -1.545157 -2.598947 0.481966
H -3.742305 -0.174033 -0.237308
H -0.076796 -1.937515 -1.736955
H 2.300179 -1.437757 -2.164674
H 2.134730 1.750036 0.751286