26
Extracted from mol_219.out
O -0.344940 -2.648093 -1.560037
B -0.699990 -2.031065 -0.393133
O -0.929947 -2.876824 0.655705
C -0.904526 -0.460631 -0.285505
C -2.202518 0.011846 -0.578997
C -2.547712 1.361196 -0.531197
C -1.569762 2.297234 -0.176958
O -1.921736 3.608154 -0.134568
C -0.273270 1.855355 0.119067
C 0.080174 0.497567 0.072210
C 1.526385 0.129812 0.414860
C 2.277908 -0.497771 -0.773519
C 1.633918 -0.747284 1.675832
H -0.199632 -2.017609 -2.274724
H -1.187161 -2.403323 1.455108
H -2.981173 -0.706567 -0.858291
H -3.558246 1.704653 -0.762491
H -1.155679 4.139205 0.121145
H 0.486515 2.595705 0.395602
H 2.037218 1.080467 0.646418
H 1.853087 -1.473556 -1.053776
H 3.338067 -0.660109 -0.518376
H 2.240016 0.157991 -1.658614
H 2.690585 -0.908957 1.945448
H 1.177407 -1.737124 1.523705
H 1.135011 -0.270273 2.535085