26
Extracted from mol_941.out
O -4.378200 0.425474 0.512507
B -3.670106 -0.664305 0.098645
O -4.378133 -1.817534 -0.056241
C -2.111697 -0.594507 -0.179572
C -1.511615 -1.364840 -1.191003
C -0.140755 -1.282822 -1.418134
C 0.691925 -0.448405 -0.654949
C 2.144000 -0.481384 -1.030256
O 2.586206 -1.231388 -1.874457
O 2.916352 0.392707 -0.369106
C 4.300559 0.385187 -0.712120
C 0.103150 0.328747 0.381001
O 0.902041 1.112910 1.131797
C 0.358867 1.892307 2.174404
C -1.286395 0.243663 0.589406
H -3.856839 1.236056 0.502872
H -3.820252 -2.575541 -0.265353
H -2.119567 -2.020402 -1.821940
H 0.336364 -1.869421 -2.205547
H 4.773737 1.148048 -0.080729
H 4.748888 -0.602016 -0.520198
H 4.444346 0.626681 -1.776832
H -0.131175 1.269333 2.944183
H 1.203788 2.424598 2.631655
H -0.369037 2.634474 1.799393
H -1.736452 0.832380 1.390573