20
Extracted from mol_1427.out
O -0.518465 -2.177041 1.368519
B -1.115006 -1.533587 0.327348
O -2.027153 -2.217140 -0.423035
C -0.728238 -0.014297 0.058824
C 0.423612 0.323949 -0.685259
S 1.452001 -0.983112 -1.378383
C 2.512708 -1.396093 0.057819
C 0.754110 1.661516 -0.944611
C -0.056416 2.689020 -0.454686
C -1.196622 2.387734 0.292675
C -1.512294 1.047748 0.535139
Cl -2.960980 0.688997 1.471177
H -0.829649 -3.090024 1.449074
H -2.402814 -1.701787 -1.146166
H 1.901878 -1.768091 0.891766
H 3.106330 -0.524437 0.369547
H 3.192010 -2.190333 -0.286188
H 1.646265 1.887222 -1.532760
H 0.199471 3.732802 -0.655320
H -1.840749 3.176952 0.684520