24
Extracted from mol_1834.out
O 3.787706 -1.111643 0.938413
B 3.066937 -0.085085 0.402741
O 3.748374 1.045665 0.028841
C 1.514871 -0.258586 0.238516
C 0.920467 -1.525407 0.347498
C -0.455776 -1.693099 0.188322
C -1.294672 -0.600002 -0.076562
S -3.054323 -0.738513 -0.290245
C -3.373219 -2.513607 -0.074375
C -0.718204 0.697545 -0.179285
S -1.820705 2.062677 -0.498831
C -0.716041 3.503273 -0.535271
C 0.666030 0.834810 -0.022986
H 4.732594 -0.909850 0.967692
H 3.201189 1.697322 -0.423855
H 1.546323 -2.395857 0.558626
H -0.876690 -2.695199 0.274765
H -2.862246 -3.118462 -0.838340
H -3.095626 -2.860579 0.932183
H -4.459527 -2.625772 -0.201393
H -0.203139 3.652957 0.426917
H -1.374360 4.363753 -0.722282
H 0.019744 3.438445 -1.351316
H 1.100293 1.835215 -0.089774