27
Extracted from mol_366.out
O 3.815847 -1.457917 1.131221
B 3.507626 -0.632859 0.084336
O 4.495743 -0.258745 -0.754823
C 1.954301 -0.256335 -0.030738
C 1.090538 -1.103508 0.698419
C -0.293388 -0.941636 0.729149
C -0.916290 0.113763 0.043600
C -2.425703 0.311239 0.064125
C -3.162035 -0.865453 -0.601289
C -2.949204 0.568484 1.488338
C -0.088418 0.988005 -0.664625
C 1.298186 0.794543 -0.708221
N 2.015879 1.805293 -1.524568
O 3.060412 1.488430 -2.092635
O 1.514954 2.907922 -1.629719
H 4.757724 -1.675579 1.130946
H 4.158539 0.334848 -1.452235
H 1.542474 -1.919690 1.264372
H -0.895626 -1.649533 1.305245
H -2.636422 1.214443 -0.534230
H -2.815817 -1.024231 -1.634784
H -3.004273 -1.805359 -0.046526
H -4.247372 -0.675610 -0.630833
H -2.449108 1.433965 1.951011
H -2.784810 -0.303669 2.142773
H -4.032661 0.770155 1.470903
H -0.511095 1.839035 -1.199210