19
Extracted from mol_81.out
O 2.721047 1.693933 -1.029449
B 2.481917 0.413265 -0.624059
O 3.531537 -0.450959 -0.736562
C 1.076510 -0.042343 -0.060143
C 0.968896 -1.065476 0.900502
C -0.272618 -1.464750 1.400336
C -1.419741 -0.838139 0.923684
F -2.616455 -1.225032 1.398875
C -1.384291 0.183475 -0.035329
C -2.662786 0.817152 -0.517432
C -0.118143 0.560635 -0.502139
H 1.991604 2.292722 -0.834623
H 3.290283 -1.362824 -0.539129
H 1.870019 -1.554185 1.285362
H -0.369425 -2.250197 2.153160
H -3.225587 1.268025 0.316776
H -3.330051 0.070999 -0.980095
H -2.459191 1.602419 -1.259910
H -0.073524 1.351284 -1.259828