23
Extracted from mol_970.out
O -2.974892 -0.682810 -1.734787
B -2.722005 -0.146105 -0.507155
O -3.777580 0.300203 0.228764
C -1.292157 -0.119566 0.187793
C -1.251254 -0.574177 1.517568
C -0.038704 -0.693752 2.194369
C 1.160021 -0.373576 1.559040
C 1.155583 0.089005 0.231778
O 2.289873 0.386881 -0.440429
C 3.543346 0.278985 0.198778
C -0.081493 0.245452 -0.443847
C -0.149756 0.782264 -1.858573
F 0.902861 1.491895 -2.253790
F -0.295991 -0.237570 -2.762259
F -1.231102 1.574994 -2.022912
H -2.187748 -0.931938 -2.236095
H -4.609448 0.201580 -0.255361
H -2.185503 -0.833962 2.019440
H -0.018728 -1.045782 3.229538
H 2.100700 -0.484384 2.097541
H 4.293134 0.585379 -0.542871
H 3.755838 -0.757795 0.516039
H 3.615006 0.944780 1.077429