31
Extracted from mol_312.out
O -4.137668 -0.279533 0.630447
B -2.986141 -0.425966 -0.084692
O -3.071562 -0.380550 -1.449079
C -1.646659 -0.677739 0.718593
C -1.722273 -1.379806 1.933688
C -0.568009 -1.690049 2.651399
C 0.678286 -1.304105 2.157532
C 0.814751 -0.591047 0.953879
C 2.228518 -0.261544 0.470425
C 2.479447 1.222528 0.149700
C 2.653408 -1.172915 -0.698860
C -0.370092 -0.275199 0.253855
C -0.356230 0.499278 -1.037108
O -0.218429 0.010024 -2.140870
O -0.611083 1.798840 -0.846457
C -0.749496 2.605809 -2.021343
H -4.905407 -0.184323 0.050002
H -2.249118 -0.576766 -1.921845
H -2.702584 -1.681305 2.310684
H -0.634759 -2.236339 3.596282
H 1.581638 -1.557952 2.720340
H 2.887408 -0.506383 1.321148
H 2.116752 1.879750 0.955382
H 3.560825 1.397431 0.026951
H 1.998829 1.539989 -0.787689
H 2.565913 -2.235873 -0.423378
H 2.026510 -1.003704 -1.587462
H 3.703534 -0.979809 -0.975099
H 0.159413 2.557668 -2.639627
H -0.920017 3.629570 -1.666673
H -1.605705 2.260019 -2.620124