20
Extracted from mol_41.out
O 3.424880 0.451826 0.419346
B 2.628148 -0.617130 0.094103
O 3.245517 -1.811769 -0.142630
C 1.065385 -0.545641 -0.017852
C 0.316405 -1.707931 -0.294408
C -1.070784 -1.671601 -0.397873
C -1.756261 -0.460477 -0.228724
O -3.109752 -0.483905 -0.341921
C -1.048902 0.729797 0.047892
C -1.796078 2.029503 0.225961
C 0.345127 0.651643 0.145706
H 2.939026 1.265336 0.594526
H 4.204129 -1.744737 -0.040356
H 0.841080 -2.657063 -0.429658
H -1.653154 -2.571007 -0.610955
H -3.466881 0.403122 -0.206928
H -2.361512 2.312875 -0.681489
H -1.106370 2.857456 0.445329
H -2.518331 1.982438 1.062410
H 0.878325 1.587266 0.357524