18
Extracted from mol_1904.out
O 3.040174 -0.957829 -0.052058
B 2.203788 0.114292 0.039012
O 2.747738 1.349485 0.164513
C 0.647459 -0.234273 -0.015567
C 0.282608 -1.586492 -0.152921
C -1.052603 -1.991494 -0.209210
C -2.076428 -1.048156 -0.129044
C -1.762263 0.312752 0.008262
C -2.822363 1.278484 0.090084
N -3.698113 2.037616 0.155866
C -0.401467 0.713817 0.064292
C -0.092954 2.110575 0.205025
N 0.217920 3.224505 0.319863
H 3.969208 -0.692351 -0.013637
H 2.142221 2.101691 0.229468
H 1.079303 -2.330287 -0.215981
H -1.300082 -3.050438 -0.316396
H -3.124145 -1.351898 -0.171569