30
Extracted from mol_502.out
O -1.087730 -2.188358 -1.322182
B 0.064730 -1.488985 -1.537000
O 0.835458 -1.865335 -2.602306
C 0.614248 -0.322665 -0.618698
C 1.994868 -0.053416 -0.722804
C 2.641968 0.870551 0.107965
S 4.373716 1.263501 0.038652
C 4.992325 0.240458 -1.328594
C 1.880024 1.544762 1.079632
C 0.515050 1.301352 1.189952
C -0.143990 0.384139 0.348812
C -1.621441 0.225279 0.506656
C -2.499488 0.452203 -0.572367
C -3.883083 0.343555 -0.408390
C -4.420974 0.008994 0.838688
C -3.564239 -0.214892 1.921106
C -2.180332 -0.105743 1.757175
H -1.614263 -1.856641 -0.582956
H 0.437001 -2.607672 -3.076367
H 2.557176 -0.606295 -1.475192
H 4.502749 0.493890 -2.280745
H 4.875142 -0.833783 -1.121419
H 6.064229 0.472539 -1.406124
H 2.358305 2.271482 1.742609
H -0.065361 1.855427 1.932656
H -2.087795 0.732055 -1.545339
H -4.544672 0.529623 -1.258769
H -5.503394 -0.075370 0.966410
H -3.974699 -0.480237 2.899236
H -1.515528 -0.290416 2.605248