32
Extracted from mol_489.out
O 3.752608 -4.111084 0.049629
B 3.515244 -2.921550 -0.574340
O 4.496676 -2.479485 -1.409077
C 2.178634 -2.104698 -0.342525
C 0.962019 -2.736885 -0.024301
C -0.213305 -2.007339 0.147946
C -0.235949 -0.603767 0.041108
C -1.552304 0.089313 0.149995
C -2.019658 0.920283 -0.884313
C -3.277642 1.520231 -0.805176
C -4.092387 1.303697 0.311636
C -3.641187 0.476891 1.344252
C -2.384631 -0.129808 1.260957
C 0.990192 0.051672 -0.232970
C 1.182503 1.540405 -0.281292
O 2.034236 2.085818 -0.946358
O 0.359199 2.205069 0.544099
C 0.488205 3.626491 0.562679
C 2.152665 -0.705984 -0.446199
H 3.082567 -4.337122 0.704124
H 4.255985 -1.682565 -1.895200
H 0.916891 -3.828396 0.057438
H -1.152683 -2.532431 0.338269
H -1.395746 1.082261 -1.767536
H -3.627000 2.155884 -1.623440
H -5.076898 1.774959 0.373866
H -4.269622 0.302946 2.221968
H -2.034121 -0.767596 2.076685
H 1.504757 3.922764 0.863399
H 0.282805 4.050746 -0.432312
H -0.248770 3.988953 1.289945
H 3.066717 -0.149667 -0.672960