21
Extracted from mol_117.out
O 3.280861 0.200964 -0.150855
B 2.320184 -0.635495 0.348610
O 2.746588 -1.745932 1.015538
C 0.754416 -0.432050 0.209935
C -0.059190 -1.518306 0.604435
C -1.447056 -1.471626 0.525455
C -2.067724 -0.309207 0.045197
C -3.547845 -0.225409 -0.047868
O -4.310160 -1.110849 0.264714
C -1.279363 0.781282 -0.345181
C 0.120114 0.742894 -0.275450
C 0.896159 1.965647 -0.721330
H 2.939637 0.961521 -0.631658
H 3.711376 -1.799990 1.041943
H 0.429595 -2.418244 0.984261
H -2.070412 -2.315575 0.830124
H -3.932452 0.752538 -0.443332
H -1.775124 1.686224 -0.713160
H 0.222163 2.805512 -0.944461
H 1.466974 1.772590 -1.648948
H 1.601260 2.313514 0.052029