22
Extracted from mol_1499.out
O -1.040429 -2.672309 0.836524
B -1.422486 -1.885699 -0.188487
O -1.994565 -2.511590 -1.254994
C -1.206965 -0.280697 -0.206220
C 0.038103 0.358164 0.067007
C 1.214505 -0.393707 0.616806
O 1.155588 -1.317916 1.405020
O 2.383817 0.103861 0.196017
C 3.567251 -0.497383 0.731765
C 0.209715 1.743202 -0.096769
C -0.858817 2.550228 -0.478515
C -2.104644 1.971822 -0.711783
C -2.251632 0.586844 -0.585353
Br -4.024916 -0.082480 -0.938961
H -0.398537 -2.230263 1.421244
H -2.376871 -1.914533 -1.908435
H 3.599352 -0.385875 1.826201
H 3.601128 -1.569495 0.487527
H 4.409970 0.028889 0.267175
H 1.188153 2.183233 0.097722
H -0.727129 3.629589 -0.587063
H -2.960593 2.586115 -0.996428