29
Extracted from mol_337.out
O 4.278916 -1.537054 1.482046
B 3.656832 -0.705235 0.597989
O 4.471750 0.136510 -0.102964
C 2.088241 -0.712887 0.402007
C 1.329107 -1.882701 0.553665
C -0.053699 -1.857039 0.369584
C -0.758666 -0.687424 0.042964
C -2.275983 -0.804490 -0.123164
C -2.760193 -0.515366 -1.557396
C -3.072634 -0.018388 0.936304
C 0.001711 0.507740 -0.104760
S -0.833656 2.039901 -0.504022
C 0.498465 3.270042 -0.591799
C 1.395278 0.465134 0.069451
H 3.657210 -2.041891 2.018522
H 4.002133 0.620131 -0.791685
H 1.815533 -2.832714 0.798322
H -0.622021 -2.785408 0.481614
H -2.497300 -1.869421 0.061234
H -3.837565 -0.734251 -1.642388
H -2.228405 -1.147118 -2.286803
H -2.607309 0.534402 -1.848750
H -4.148302 -0.240779 0.839518
H -2.944933 1.069704 0.836640
H -2.759302 -0.300982 1.954110
H 1.216844 3.047217 -1.395099
H -0.009100 4.216861 -0.826347
H 1.025643 3.379566 0.367701
H 1.971403 1.385939 -0.036494