33
Extracted from mol_33.out
O 2.466601 3.136219 -0.356309
B 1.475445 2.201177 -0.232694
O 0.179028 2.615553 -0.227648
C 1.910526 0.688008 -0.102900
C 0.983809 -0.374149 0.028431
O -0.347355 -0.028360 0.033585
C -1.350243 -1.035514 0.158760
C -2.704417 -0.375130 0.109439
C -3.325697 -0.118929 -1.122652
C -4.563944 0.526286 -1.174357
C -5.195202 0.924712 0.008619
C -4.583695 0.676340 1.241445
C -3.344483 0.031662 1.289800
C 1.422571 -1.698154 0.150475
C 2.794202 -1.976267 0.137493
C 3.748007 -0.960429 0.004281
C 5.226345 -1.266856 -0.040560
C 3.274362 0.356396 -0.110157
H 2.096493 4.026118 -0.427082
H -0.418578 1.854935 -0.134529
H -1.245205 -1.765573 -0.663881
H -1.216060 -1.576038 1.112823
H -2.833776 -0.429195 -2.049343
H -5.038579 0.717740 -2.140386
H -6.165079 1.427819 -0.030527
H -5.073430 0.985656 2.168624
H -2.867523 -0.160063 2.255560
H 0.716915 -2.521753 0.260543
H 3.120655 -3.016310 0.236914
H 5.590309 -1.342193 -1.081026
H 5.816828 -0.476918 0.450084
H 5.458448 -2.222367 0.455393
H 3.992717 1.175579 -0.208214