22
Extracted from mol_1019.out
O -0.012728 2.393414 0.394751
B -1.115536 1.683543 0.022315
O -2.257524 2.389142 -0.250557
C -1.073653 0.108888 -0.042438
C -2.245120 -0.640917 0.186820
C -2.263782 -2.035794 0.162724
C -1.071575 -2.705184 -0.106124
F -1.065002 -4.043212 -0.138821
C 0.115865 -2.019974 -0.346682
C 0.098243 -0.625411 -0.307043
O 1.264681 0.056309 -0.614054
C 2.194272 0.263976 0.376561
O 2.116756 -0.234293 1.463473
C 3.267750 1.195620 -0.115739
H -0.197415 3.342801 0.417676
H -2.982282 1.850706 -0.588761
H -3.180052 -0.118543 0.414838
H -3.174232 -2.607661 0.351147
H 1.035413 -2.565579 -0.560653
H 2.831928 2.204150 -0.194370
H 4.104087 1.206534 0.593821
H 3.609909 0.901486 -1.118884