20
Extracted from mol_1649.out
O 3.287956 -0.924005 0.375395
B 2.563067 0.222419 0.261580
O 3.224414 1.415845 0.289243
C 0.998008 0.083943 0.101048
C 0.400111 -1.193562 0.057603
C -0.983528 -1.355051 -0.086159
C -1.582810 -2.715742 -0.129757
O -2.765025 -2.936634 -0.254770
C -1.808196 -0.222425 -0.189650
C -1.243958 1.053914 -0.148613
C -2.102188 2.263664 -0.256784
O -1.684671 3.398674 -0.231655
C 0.149896 1.193311 -0.004173
H 4.235130 -0.754390 0.468509
H 2.667564 2.197731 0.198743
H 1.038636 -2.078859 0.138437
H -0.842877 -3.553358 -0.040740
H -2.887384 -0.365633 -0.301195
H -3.196988 2.051000 -0.368092
H 0.532844 2.219157 0.021571