16
Extracted from mol_1275.out
O -2.727452 1.373471 0.532470
B -2.101194 0.342532 -0.084002
O -2.905721 -0.523374 -0.751998
C -0.505680 0.120406 -0.023884
C 0.479009 1.106410 0.205100
Br 0.010941 2.960579 0.444241
C 1.849462 0.835132 0.258469
C 2.295724 -0.476169 0.084588
C 1.376758 -1.498030 -0.148004
C 0.026167 -1.171019 -0.199471
F -0.827198 -2.196783 -0.440503
H -2.132835 2.013219 0.945248
H -2.443255 -1.296688 -1.093540
H 2.559327 1.644147 0.435304
H 3.364820 -0.697784 0.128685
H 1.681129 -2.536051 -0.292702