23
Extracted from mol_726.out
O 2.850626 -2.070238 -0.291213
B 2.914214 -0.723891 -0.076694
O 4.109653 -0.048568 0.115526
C 1.600924 0.111330 -0.041270
C 0.360882 -0.535521 -0.226910
C -0.836790 0.166832 -0.204938
O -2.000010 -0.556213 -0.470474
C -3.117814 -0.417977 0.295855
O -3.213420 0.338033 1.225172
C -4.197544 -1.348520 -0.200370
C -0.836008 1.553382 0.005493
C 0.371668 2.215196 0.195592
C 1.591211 1.513504 0.176258
O 2.713780 2.236604 0.369166
H 3.689985 -2.544354 -0.302733
H 4.922320 -0.567970 0.096080
H 0.335664 -1.613709 -0.398840
H -4.412376 -1.143728 -1.260705
H -3.851589 -2.392085 -0.135732
H -5.103560 -1.214428 0.402829
H -1.774333 2.107393 0.028211
H 0.398414 3.293750 0.364617
H 3.484105 1.641176 0.335078