22
Extracted from mol_1033.out
O -4.203739 0.686405 0.748023
B -2.971203 1.067708 0.292184
O -2.759870 2.389702 0.041996
C -1.780612 0.065535 0.046841
C -1.950854 -1.331012 0.047581
C -0.881539 -2.200918 -0.169990
C 0.396934 -1.681202 -0.388231
Cl 1.740320 -2.753672 -0.672422
C 0.594951 -0.291296 -0.395629
O 1.841787 0.235513 -0.672847
C 2.762120 0.326779 0.346060
O 2.510702 0.043433 1.482206
C 4.077643 0.818936 -0.194639
C -0.485044 0.562241 -0.182151
H -4.276793 -0.249100 0.968402
H -3.537836 2.927299 0.242497
H -2.941946 -1.769860 0.205965
H -1.024105 -3.283085 -0.174853
H 3.931320 1.746162 -0.768951
H 4.777268 0.984828 0.633262
H 4.486434 0.066237 -0.887357
H -0.305937 1.639367 -0.200536