25
Extracted from mol_272.out
O 3.771173 -0.149901 -1.747693
B 3.388188 0.374269 -0.556690
O 4.338178 1.090032 0.113630
C 1.957451 0.137065 0.108995
C 1.907052 0.001174 1.510764
C 0.708251 -0.233248 2.181680
C -0.479770 -0.335095 1.458055
C -0.506514 -0.212692 0.058527
C -1.818488 -0.292780 -0.716841
C -2.390776 1.117359 -0.964951
C -2.868351 -1.205464 -0.067694
C 0.731973 0.019204 -0.574020
Cl 0.743168 0.186005 -2.345150
H 3.044862 -0.583643 -2.213227
H 4.005815 1.505403 0.916789
H 2.836521 0.061859 2.085559
H 0.696902 -0.341874 3.269265
H -1.413660 -0.518843 1.992616
H -1.576499 -0.724751 -1.700816
H -2.643406 1.611119 -0.011681
H -3.309026 1.061668 -1.572615
H -1.670238 1.755715 -1.498148
H -3.266388 -0.785825 0.871077
H -3.724572 -1.331259 -0.749481
H -2.461846 -2.205496 0.152047