20
Extracted from mol_1428.out
O 0.913485 2.545671 -0.948330
B -0.307307 2.063427 -0.609361
O -1.342943 2.945818 -0.472108
C -0.655802 0.530748 -0.335125
C -1.997763 0.248965 -0.008911
C -2.431932 -1.044445 0.278508
C -1.527012 -2.104917 0.248577
C -0.191965 -1.856257 -0.080006
Cl 0.899420 -3.227113 -0.107251
C 0.261231 -0.552006 -0.371462
S 1.981776 -0.314983 -0.861443
C 2.836740 -0.395687 0.756423
H 1.567167 1.822610 -1.039456
H -1.055930 3.850210 -0.655694
H -2.706349 1.078715 0.020198
H -3.479145 -1.233464 0.529277
H -1.840881 -3.126395 0.471272
H 2.473330 0.392332 1.430820
H 3.904332 -0.235480 0.545847
H 2.699549 -1.387747 1.208224