29
Extracted from mol_233.out
O 4.472401 -1.278357 0.117579
B 3.167131 -1.552310 -0.204408
O 2.892746 -2.787458 -0.718691
C 1.985071 -0.538622 -0.015996
C 2.165612 0.754796 0.493394
C 1.095429 1.639782 0.649701
C -0.199189 1.233991 0.295991
O -1.293736 2.032404 0.422008
C -1.150508 3.347976 0.907887
C -0.432716 -0.064947 -0.226870
C -1.855341 -0.482875 -0.583889
C -2.653627 -0.852503 0.682889
C -1.929335 -1.609396 -1.622200
C 0.668251 -0.910705 -0.367775
H 4.610382 -0.395157 0.477619
H 3.689700 -3.329220 -0.790732
H 3.162354 1.108700 0.782880
H 1.277648 2.638543 1.047154
H -2.155504 3.791973 0.909737
H -0.750430 3.364811 1.937913
H -0.491773 3.955747 0.261335
H -2.340041 0.407023 -1.020227
H -2.216550 -1.737340 1.175597
H -3.701218 -1.087788 0.430042
H -2.656651 -0.023798 1.406216
H -1.349674 -1.370474 -2.528115
H -1.551522 -2.565255 -1.223137
H -2.976141 -1.776325 -1.923785
H 0.517229 -1.913217 -0.772117