20
Extracted from mol_37.out
O 2.608933 -1.818253 -0.721425
B 2.117320 -0.642517 -0.224802
O 3.043609 0.279426 0.194590
C 0.553546 -0.465981 -0.182918
C -0.224222 -1.551634 -0.644176
C -1.614873 -1.534000 -0.662400
C -2.286456 -0.393007 -0.205572
O -3.642605 -0.393654 -0.230677
C -1.544186 0.702370 0.257862
C -0.142949 0.683195 0.276332
C 0.571697 1.914805 0.795668
H 3.574910 -1.830748 -0.703234
H 2.661888 1.091236 0.541585
H 0.296612 -2.442988 -1.001642
H -2.196857 -2.384858 -1.023154
H -3.972373 0.448364 0.110799
H -2.076557 1.592335 0.612726
H 1.178007 1.689174 1.691266
H -0.140656 2.700203 1.087878
H 1.235211 2.356532 0.031295