20
Extracted from mol_1431.out
O -2.768139 -1.315044 -0.294487
B -1.426865 -1.304691 -0.551133
O -0.831568 -2.449748 -0.973063
C -0.671565 0.078520 -0.336110
C 0.731360 0.270878 -0.369051
S 1.899571 -1.077749 -0.661824
C 1.978313 -1.847857 1.000668
C 1.282813 1.550418 -0.206892
C 0.465658 2.662791 -0.000321
C -0.918446 2.480565 0.048093
Cl -1.960817 3.859762 0.312899
C -1.477704 1.211765 -0.114617
H -3.153842 -2.184247 -0.468012
H 0.121294 -2.317572 -1.152106
H 0.999729 -2.258846 1.286163
H 2.709239 -2.666746 0.928593
H 2.320719 -1.118037 1.747749
H 2.367771 1.673385 -0.244278
H 0.894084 3.659106 0.123873
H -2.561605 1.093346 -0.076145