23
Extracted from mol_1837.out
O -1.675846 -2.945494 0.722234
B -1.705085 -1.887578 -0.140433
O -2.817651 -1.684277 -0.891127
C -0.399280 -0.979433 -0.193002
C 0.750517 -1.466202 0.459060
C 1.965243 -0.778916 0.442845
C 2.058818 0.438291 -0.236428
C 3.345069 1.229290 -0.243149
F 3.589661 1.766037 -1.452251
F 4.404842 0.473089 0.087515
F 3.298021 2.251753 0.633431
C 0.934279 0.957996 -0.887348
C -0.281070 0.263869 -0.862148
S -1.652546 1.024675 -1.765312
C -2.625432 1.740837 -0.385729
H -2.495173 -3.457073 0.681478
H -2.718753 -0.915992 -1.488562
H 0.681639 -2.420149 0.986364
H 2.840598 -1.189965 0.949241
H 0.999494 1.906899 -1.423307
H -2.021963 2.468251 0.175135
H -2.993620 0.949045 0.281413
H -3.481763 2.255043 -0.846220