27
Extracted from mol_392.out
O -2.177518 -0.641134 -2.798303
B -1.227026 -0.790495 -1.828907
O -0.257259 -1.729044 -2.038826
C -1.371920 0.091847 -0.521834
C -2.655068 0.597560 -0.256129
C -2.947607 1.294405 0.923219
O -4.217141 1.745358 1.099746
C -1.933152 1.492514 1.867830
C -0.648982 1.008449 1.614855
C -0.340177 0.316958 0.431634
C 1.072747 -0.123100 0.223015
C 1.804845 0.284433 -0.910482
C 3.138726 -0.095496 -1.080412
C 3.773925 -0.889063 -0.119404
C 3.063975 -1.299314 1.013281
C 1.729138 -0.919619 1.182491
H -2.027844 -1.250496 -3.533726
H 0.412032 -1.760126 -1.342734
H -3.461084 0.437444 -0.974851
H -4.282632 2.202534 1.948588
H -2.142674 2.035469 2.795792
H 0.141400 1.194724 2.346940
H 1.322045 0.919858 -1.657237
H 3.687261 0.237528 -1.965692
H 4.817707 -1.185477 -0.252695
H 3.549750 -1.923173 1.768633
H 1.176531 -1.252542 2.065209