26
Extracted from mol_1078.out
O 3.781381 -1.212006 0.301720
B 2.730857 -0.496387 -0.190695
O 2.974753 0.580068 -0.989251
C 1.273603 -0.997019 0.167484
C 1.094084 -2.276322 0.725445
C -0.175845 -2.770406 1.024365
C -1.300895 -1.992249 0.748796
C -1.175294 -0.708321 0.192363
C -2.392369 0.126721 -0.115423
O -2.410433 1.345232 -0.033059
N -3.505513 -0.582420 -0.477296
C 0.122506 -0.227670 -0.069496
O 0.263698 1.034628 -0.641006
C 0.217511 2.137096 0.214168
O 0.365190 2.032689 1.394194
C -0.005551 3.393852 -0.574842
H 4.628469 -0.842816 0.017603
H 2.144309 0.984521 -1.282596
H 1.980133 -2.882124 0.930221
H -0.293087 -3.759959 1.473110
H -2.295559 -2.372327 0.994977
H -3.452565 -1.549248 -0.768563
H -4.327856 -0.046412 -0.731214
H 0.201954 4.266406 0.056522
H 0.617898 3.414339 -1.481100
H -1.061384 3.400134 -0.886427