20
Extracted from mol_911.out
O 3.465394 1.225242 -0.469015
B 2.403445 0.472710 -0.873686
O 2.453993 0.006616 -2.155085
C 1.182556 0.162167 0.084421
C 1.360830 0.010038 1.468923
C 0.276980 -0.270205 2.307234
C -1.005217 -0.390615 1.776003
Br -2.474517 -0.761711 2.923987
C -1.226557 -0.237539 0.388205
O -2.496397 -0.358233 -0.052285
C -2.778493 -0.211310 -1.427295
C -0.121112 0.030300 -0.434206
H 3.339258 1.612034 0.404930
H 1.744399 -0.613611 -2.356473
H 2.359328 0.088908 1.909987
H 0.421800 -0.398938 3.381785
H -3.863105 -0.344235 -1.535939
H -2.500416 0.791433 -1.798697
H -2.261150 -0.974770 -2.036209
H -0.281018 0.161718 -1.506586