19
Extracted from mol_110.out
O 3.390590 0.053474 1.113182
B 2.519858 0.598478 0.214652
O 3.030425 1.563469 -0.591691
C 1.039504 0.015714 0.099577
C 0.933966 -1.392065 0.090183
C -0.296498 -2.034624 -0.035310
C -1.460604 -1.275451 -0.140370
C -1.428800 0.130512 -0.128448
C -2.720121 0.901675 -0.234596
C -0.162386 0.739531 -0.015088
I -0.086052 2.895624 0.014707
H 2.974522 -0.587220 1.700647
H 2.378607 1.957795 -1.184333
H 1.845931 -1.992215 0.167883
H -0.350490 -3.126286 -0.050221
H -2.428956 -1.775267 -0.233835
H -2.722018 1.566918 -1.113612
H -2.881394 1.543228 0.647403
H -3.576082 0.216708 -0.320731