20
Extracted from mol_921.out
O -2.546044 -1.795543 -0.736703
B -2.371970 -0.439366 -0.829523
O -3.372387 0.296993 -1.387843
C -1.083762 0.308433 -0.318034
C -1.102166 1.698764 -0.124849
C 0.031074 2.371412 0.342639
C 1.203302 1.667010 0.615629
I 2.917463 2.701190 1.318935
C 1.261423 0.269713 0.423422
O 2.431948 -0.349342 0.697742
C 2.547407 -1.743818 0.525912
C 0.109741 -0.385676 -0.039740
H -1.846089 -2.248824 -0.253384
H -4.127020 -0.250800 -1.642875
H -2.012902 2.261566 -0.341305
H 0.004756 3.452489 0.494556
H 1.843604 -2.297798 1.173770
H 2.379313 -2.044674 -0.524268
H 3.574981 -2.006802 0.810802
H 0.157328 -1.464928 -0.204884