20
Extracted from mol_1605.out
O 0.313592 3.009769 0.576780
B -0.147332 1.949744 -0.152475
O -1.156356 2.168661 -1.040496
C 0.508318 0.507681 -0.070940
C -0.136920 -0.562558 0.584291
S -1.712688 -0.299831 1.414101
C -2.888788 -0.521765 0.026615
C 0.476379 -1.820809 0.660379
C 1.730482 -2.040902 0.082787
C 2.370654 -0.983368 -0.568383
I 4.284105 -1.294267 -1.447638
C 1.773045 0.278799 -0.644042
H 1.011696 2.777224 1.200427
H -1.469853 3.083948 -1.009598
H -2.718315 0.241037 -0.745383
H -2.805379 -1.532104 -0.399746
H -3.893350 -0.394629 0.457213
H -0.032286 -2.634816 1.182813
H 2.199050 -3.024852 0.147072
H 2.293945 1.093036 -1.154411