26
Extracted from mol_1092.out
O -3.258160 -1.502812 0.002051
B -3.030114 -0.208053 -0.320491
O -4.114168 0.623424 -0.276756
C -1.596293 0.356406 -0.754508
C -1.568909 1.510518 -1.562067
C -0.376851 2.071517 -2.023327
C 0.838733 1.489584 -1.671049
C 0.846241 0.345160 -0.871814
O 2.075966 -0.237071 -0.612411
C 2.611433 -0.163512 0.646225
O 2.118445 0.471323 1.538237
C 3.872668 -0.980826 0.718627
C -0.353118 -0.234768 -0.415557
S -0.234012 -1.771391 0.524355
C -0.670109 -1.200749 2.211233
H -2.434101 -2.023270 0.002562
H -3.897236 1.550890 -0.418278
H -2.512278 1.973079 -1.868678
H -0.393809 2.960280 -2.659284
H 1.792049 1.900443 -2.009934
H 3.607293 -2.047100 0.636933
H 4.536572 -0.741758 -0.125377
H 4.378926 -0.796265 1.673734
H -1.722106 -0.887780 2.255391
H -0.523746 -2.068368 2.871338
H 0.006684 -0.388902 2.508845