25
Extracted from mol_261.out
O 1.800534 3.091935 -0.122323
B 0.831445 2.151910 -0.317972
O -0.377220 2.602098 -0.769583
C 1.060407 0.598216 -0.065888
C 2.374936 0.101339 -0.053194
F 3.411113 0.976268 -0.211391
C 2.727201 -1.232188 0.105253
C 1.696678 -2.154254 0.280546
C 0.370975 -1.719149 0.303598
C 0.028132 -0.365607 0.139464
C -1.451677 0.021900 0.172282
C -2.095833 -0.173461 -1.213819
C -2.251977 -0.713390 1.260698
H 2.656592 2.707860 0.107695
H -0.356566 3.560725 -0.899606
H 3.780371 -1.518432 0.090987
H 1.929020 -3.214967 0.407764
H -0.418864 -2.456713 0.455813
H -1.506428 1.093574 0.398605
H -3.152590 0.141772 -1.196613
H -2.063572 -1.232241 -1.522924
H -1.577510 0.425469 -1.976836
H -2.372830 -1.788030 1.046344
H -3.265689 -0.286242 1.330788
H -1.776648 -0.618390 2.250312