36
Extracted from mol_377.out
O 0.135649 0.316674 2.269601
B -0.079418 -0.509198 1.200129
O -0.365099 -1.817466 1.462270
C -0.004316 0.013276 -0.298287
C 1.238116 0.048132 -0.983963
C 2.491442 -0.498036 -0.376993
C 3.653565 0.296113 -0.320862
C 4.841895 -0.202398 0.218215
C 4.896097 -1.511217 0.707951
C 3.752875 -2.313669 0.652809
C 2.562212 -1.814662 0.116206
C 1.318055 0.633494 -2.260397
C 0.188811 1.183317 -2.865030
C -1.034769 1.158706 -2.197740
C -1.147313 0.580429 -0.920493
C -2.481452 0.611400 -0.244990
C -3.195083 1.821763 -0.144656
C -4.453334 1.868843 0.460142
C -5.029925 0.702693 0.973407
C -4.336961 -0.507316 0.875040
C -3.076327 -0.554939 0.272380
H 0.333405 1.225937 2.015867
H -0.377475 -1.992660 2.414484
H 3.616940 1.323453 -0.693415
H 5.728901 0.436003 0.258692
H 5.825707 -1.904015 1.128677
H 3.788049 -3.342098 1.023107
H 1.679955 -2.455203 0.068693
H 2.276387 0.638529 -2.785835
H 0.260249 1.623347 -3.863500
H -1.924987 1.576485 -2.674750
H -2.747437 2.739999 -0.534627
H -4.984263 2.822057 0.533730
H -6.015368 0.737036 1.445803
H -4.783893 -1.426813 1.263432
H -2.550887 -1.507998 0.192176