24
Extracted from mol_1827.out
O 0.900227 2.571369 -0.759253
B 0.331361 1.394182 -1.174087
O 0.124772 1.194854 -2.503415
C 0.055513 0.183253 -0.170604
C 1.124567 -0.551010 0.403525
B 2.633878 -0.221752 0.078206
O 3.624148 -0.300858 1.024583
O 2.980291 0.137641 -1.185013
C 0.833515 -1.607395 1.290180
C -0.480142 -1.953420 1.610787
C -1.532897 -1.228110 1.051845
C -1.268983 -0.167392 0.171704
C -2.371761 0.690708 -0.384976
O -2.166991 1.857933 -0.687747
N -3.607143 0.116470 -0.501807
H 0.910491 2.671311 0.198822
H 0.330765 1.991859 -3.010441
H 3.293506 -0.494193 1.909812
H 3.918419 0.359355 -1.262063
H 1.652869 -2.186003 1.731482
H -0.683970 -2.775834 2.301799
H -2.562308 -1.466559 1.333236
H -4.325232 0.673001 -0.952412
H -3.714893 -0.889407 -0.514163