24
Extracted from mol_864.out
O 4.090985 -0.324849 -0.086110
B 3.080991 0.587457 0.020931
O 3.433731 1.905265 0.177931
C 1.597332 0.084851 -0.048723
C 1.311920 -1.226163 -0.448278
C -0.006601 -1.693418 -0.530669
C -1.078818 -0.857298 -0.206681
O -2.383397 -1.212472 -0.251862
C -2.725245 -2.518644 -0.654544
C -0.815940 0.478980 0.210455
O -1.909818 1.222487 0.515403
C -1.735739 2.550896 0.942891
C 0.504139 0.921847 0.279679
H 4.958520 0.100060 -0.056192
H 2.684699 2.511519 0.173208
H 2.134098 -1.898984 -0.702795
H -0.192530 -2.719715 -0.849594
H -2.301964 -3.283125 0.022693
H -3.821678 -2.579570 -0.619231
H -2.387753 -2.733817 -1.685153
H -1.244280 3.173717 0.171652
H -1.143073 2.612239 1.874991
H -2.739953 2.953505 1.134820
H 0.690377 1.945231 0.615179