16
Extracted from mol_1375.out
O 2.862465 0.737330 0.556626
B 2.058963 -0.119868 -0.119631
O 2.636106 -1.146389 -0.817656
C 0.485424 0.021415 -0.017936
C -0.271276 -1.071410 0.448624
C -1.659573 -1.019481 0.593413
C -2.325250 0.158620 0.247006
Br -4.220244 0.262894 0.428087
C -1.624483 1.264851 -0.238318
C -0.233761 1.179578 -0.361533
Cl 0.603772 2.576765 -1.011205
H 3.799949 0.536903 0.426225
H 2.003417 -1.685566 -1.306926
H 0.245417 -1.996341 0.724779
H -2.216125 -1.879275 0.969761
H -2.144801 2.179975 -0.521316