20
Extracted from mol_36.out
O -2.863639 -0.158331 -0.946673
B -2.146396 0.507636 0.007715
O -2.888763 1.184961 0.930064
C -0.561835 0.542778 0.045115
C 0.054523 1.803054 0.187645
C 1.445512 1.931078 0.204994
C 2.249444 0.798424 0.097145
C 1.657202 -0.464320 -0.030470
O 2.493920 -1.533667 -0.117015
C 0.252479 -0.610112 -0.062990
C -0.314262 -2.010354 -0.175878
H -2.304917 -0.536132 -1.634772
H -2.341096 1.587887 1.614094
H -0.565631 2.701240 0.267531
H 1.907525 2.917294 0.302986
H 3.339741 0.862755 0.113106
H 1.980370 -2.347523 -0.193623
H -1.411572 -2.013228 -0.158894
H 0.000074 -2.510879 -1.111599
H 0.017323 -2.652559 0.661521