16
Extracted from mol_1268.out
O 2.681694 0.727359 0.661904
B 1.951655 -0.164903 -0.072565
O 2.492297 -1.154282 -0.845834
C 0.383867 -0.046386 -0.025586
C -0.233662 0.950729 0.751772
C -1.626465 1.047678 0.787100
Cl -2.385976 2.291410 1.757335
C -2.434552 0.168183 0.060337
C -1.806028 -0.813395 -0.704239
F -2.570257 -1.664228 -1.405922
C -0.421157 -0.935393 -0.759855
H 3.640415 0.633634 0.615694
H 3.455197 -1.207042 -0.858003
H 0.372595 1.650523 1.328622
H -3.522673 0.237313 0.082957
H 0.023052 -1.721204 -1.373713