28
Extracted from mol_338.out
O -1.115653 -3.049984 -0.637106
B -1.029364 -2.095324 0.343044
O -0.979411 -2.525552 1.633535
C -1.114927 -0.541928 0.037367
C -2.432541 -0.072411 -0.127026
C -2.709593 1.267933 -0.389630
C -1.652579 2.167522 -0.490216
C -0.330596 1.728374 -0.334254
C 0.761697 2.773656 -0.454377
F 0.266357 4.006268 -0.661880
F 1.522231 2.849224 0.658754
F 1.600882 2.521411 -1.483432
C -0.031212 0.367463 -0.073216
C 1.418785 -0.103117 0.102517
C 1.727304 -0.472969 1.566483
C 1.804566 -1.224237 -0.879505
H -1.135019 -2.684406 -1.529669
H -0.992020 -3.491658 1.694594
H -3.266738 -0.776686 -0.039440
H -3.740005 1.611220 -0.510787
H -1.847330 3.221290 -0.690765
H 2.079371 0.734055 -0.144758
H 2.794196 -0.730372 1.674276
H 1.130463 -1.328569 1.914442
H 1.518264 0.379130 2.231677
H 2.873382 -1.469374 -0.770269
H 1.240321 -2.154938 -0.718500
H 1.639167 -0.906019 -1.921865