20
Extracted from mol_923.out
O 1.293039 -1.664201 1.974710
B 1.909540 -0.604183 1.368079
O 3.196418 -0.348851 1.719559
C 1.028912 0.199607 0.313434
C 1.377062 1.330249 -0.445263
I 3.303405 2.290303 -0.334901
C 0.481426 1.927643 -1.343152
C -0.795667 1.404024 -1.505996
C -1.188257 0.274673 -0.768328
O -2.448855 -0.173466 -0.984898
C -2.912394 -1.303716 -0.276905
C -0.279925 -0.306686 0.123103
H 1.888957 -2.101860 2.597000
H 3.598337 0.410896 1.269267
H 0.778706 2.805539 -1.919683
H -1.506330 1.856103 -2.201389
H -3.943987 -1.479027 -0.611239
H -2.306550 -2.201737 -0.494495
H -2.912556 -1.132925 0.814742
H -0.561282 -1.182384 0.706356