30
Extracted from mol_604.out
O -0.847779 -2.428648 -0.195771
B -2.121257 -1.972757 -0.057094
O -3.159308 -2.855563 -0.154694
C -2.483997 -0.457128 0.215834
C -3.832839 -0.091473 0.344595
C -4.207204 1.232352 0.587470
Cl -5.902411 1.649636 0.742036
C -3.236109 2.225893 0.708255
C -1.883544 1.892617 0.584880
C -1.510041 0.563585 0.340201
O -0.201260 0.174452 0.208449
C 0.852598 1.132938 0.323933
C 2.168985 0.424945 0.132581
C 2.869194 -0.088980 1.234500
C 4.071844 -0.777800 1.054239
C 4.585412 -0.963151 -0.233196
C 3.893439 -0.457408 -1.338659
C 2.691871 0.231809 -1.155464
H -0.211299 -1.700334 -0.103818
H -2.843763 -3.753789 -0.320602
H -4.599427 -0.862847 0.252151
H -3.532349 3.259298 0.898609
H -1.138976 2.682440 0.682741
H 0.809408 1.610841 1.318718
H 0.718976 1.919671 -0.439937
H 2.468828 0.053403 2.242652
H 4.609774 -1.170558 1.921087
H 5.526766 -1.500625 -0.375254
H 4.291912 -0.599190 -2.346705
H 2.152553 0.626371 -2.021761