28
Extracted from mol_10.out
O 3.207274 -1.692914 1.392122
B 2.299792 -1.366640 0.223590
O 2.286961 -2.464510 -0.856943
C 1.479647 0.065710 0.127107
C 2.286150 1.205968 0.115228
C 1.720381 2.467605 -0.008923
C 0.345001 2.588748 -0.126218
C -0.480966 1.461197 -0.105098
C -1.943125 1.708566 -0.247197
C 0.078048 0.177040 0.038590
C -0.776243 -1.070943 0.106645
C -1.731900 -1.055052 1.290594
C -1.505500 -1.330296 -1.203697
H 3.602819 -2.541885 1.241819
H 1.675856 -2.196017 -1.529800
H 3.375686 1.121269 0.209577
H 2.355998 3.359034 -0.015257
H -0.102252 3.584625 -0.234303
H -2.492164 1.368857 0.646288
H -2.355254 1.163343 -1.112247
H -2.172336 2.773383 -0.389424
H -0.108553 -1.954137 0.273576
H -1.194572 -0.887147 2.232594
H -2.496005 -0.266389 1.205528
H -2.263017 -2.012498 1.375364
H -2.207303 -0.520654 -1.459243
H -2.086080 -2.260823 -1.152028
H -0.798344 -1.425437 -2.038243