34
Extracted from mol_562.out
O 0.268125 2.941792 -0.299835
B -1.023051 2.914383 0.117798
O -1.528295 4.073853 0.634877
C -1.908945 1.594963 0.012334
C -3.316397 1.656324 0.098556
C -4.101317 0.511919 -0.000315
C -3.503860 -0.739512 -0.197196
C -2.111341 -0.839493 -0.302812
O -1.436073 -1.999625 -0.511873
C -2.160496 -3.198876 -0.679807
C -1.323865 0.334322 -0.198598
O 0.042108 0.239078 -0.366385
C 0.785183 -0.351726 0.722500
C 2.255437 -0.316606 0.396722
C 2.976174 0.886129 0.484044
C 4.336150 0.922363 0.167062
C 4.994176 -0.244172 -0.238396
C 4.285145 -1.445401 -0.330346
C 2.922658 -1.478261 -0.017755
H 0.521444 2.061063 -0.627111
H -2.420452 3.980379 0.985376
H -3.811296 2.624055 0.230336
H -5.190181 0.580920 0.067063
H -4.130500 -1.628246 -0.278674
H -1.418904 -3.989563 -0.857149
H -2.749040 -3.455247 0.220018
H -2.841902 -3.146158 -1.547922
H 0.443928 -1.386995 0.871309
H 0.574371 0.224209 1.641682
H 2.464913 1.802513 0.792571
H 4.885324 1.864986 0.238977
H 6.059640 -0.216106 -0.482597
H 4.793561 -2.359589 -0.648633
H 2.367575 -2.417676 -0.095828