20
Extracted from mol_1558.out
O 2.384877 -1.038526 1.819997
B 2.535312 -0.315737 0.668673
O 3.796912 0.020658 0.293588
C 1.195522 0.047358 -0.102601
C -0.010220 -0.411066 0.473678
C -1.283464 -0.184125 -0.068812
B -2.598769 -0.718087 0.615436
O -3.793501 -0.405482 0.038338
O -2.611507 -1.476911 1.752749
C -1.350717 0.551474 -1.266593
C -0.195131 1.029397 -1.882785
C 1.049141 0.773532 -1.298528
Br 2.568536 1.492913 -2.254430
H 3.240030 -1.221069 2.231744
H 3.837698 0.531862 -0.529141
H 0.093890 -0.975213 1.405654
H -4.539839 -0.779077 0.526074
H -1.738691 -1.677241 2.110544
H -2.324356 0.751610 -1.721296
H -0.255719 1.598474 -2.812292