28
Extracted from mol_9.out
O 0.764343 2.762297 -0.119024
B 0.943524 1.638561 0.650407
O 1.275247 1.825534 1.959198
C 0.798569 0.168274 0.082717
C -0.470830 -0.366349 -0.241932
C -1.745199 0.442636 0.007356
C -2.439671 -0.008400 1.306439
C -2.722758 0.424391 -1.179691
C -0.559421 -1.676689 -0.742612
C 0.586932 -2.446332 -0.931558
C 1.841500 -1.919123 -0.615756
C 1.962753 -0.620855 -0.104419
C 3.330237 -0.072692 0.243540
H 0.544978 2.556693 -1.035727
H 1.349827 2.765393 2.178953
H -1.441715 1.493595 0.149968
H -1.758684 0.069555 2.168398
H -2.769130 -1.058490 1.233903
H -3.328239 0.611294 1.514287
H -3.568376 1.106860 -0.993241
H -3.147283 -0.578701 -1.348798
H -2.231690 0.739490 -2.114774
H -1.535820 -2.103379 -0.985990
H 0.504810 -3.463146 -1.326177
H 2.739921 -2.525138 -0.766643
H 3.406814 0.156504 1.319004
H 4.126513 -0.787998 -0.010802
H 3.542849 0.866216 -0.297026