29
Extracted from mol_232.out
O 4.138250 -0.875586 0.447708
B 2.940119 -0.797688 -0.202100
O 2.899229 -1.034841 -1.545387
C 1.643858 -0.485043 0.643402
C 1.667958 -0.669191 2.037599
C 0.503344 -0.554055 2.795440
C -0.709246 -0.282481 2.158122
C -0.795469 -0.077145 0.769919
C -2.171670 0.127087 0.137258
C -2.388854 1.507913 -0.507083
C -2.534262 -1.006877 -0.839456
C 0.411229 -0.148599 0.043176
O 0.380680 0.072759 -1.334417
C 0.861084 1.348783 -1.757421
H 4.851739 -1.118995 -0.157666
H 1.985965 -0.953553 -1.868944
H 2.616229 -0.924011 2.517485
H 0.529956 -0.699418 3.878683
H -1.628352 -0.232651 2.750299
H -2.883887 0.064806 0.978484
H -2.083536 2.323731 0.167947
H -3.456959 1.649950 -0.741519
H -1.832275 1.611131 -1.449718
H -1.859462 -1.008823 -1.708636
H -3.567452 -0.884267 -1.205506
H -2.464203 -1.991566 -0.350298
H 1.938635 1.463980 -1.552952
H 0.694582 1.408788 -2.842753
H 0.312767 2.165864 -1.261664