20
Extracted from mol_912.out
O 3.812692 0.690032 -0.006471
B 2.857365 -0.254980 0.212728
O 3.256335 -1.487110 0.653375
C 1.351327 0.127683 -0.061901
C 1.050039 1.334798 -0.728308
C -0.278577 1.665032 -0.975797
Br -0.690280 3.296981 -1.884938
C -1.338213 0.839325 -0.578765
C -1.043018 -0.358068 0.089789
O -1.979242 -1.236216 0.527684
C -3.346457 -0.953579 0.322230
C 0.297105 -0.701089 0.339394
H 4.701995 0.356871 0.173977
H 2.541387 -2.128206 0.739093
H 1.855898 1.998215 -1.043906
H -2.363210 1.138482 -0.791987
H -3.651907 -0.016374 0.821997
H -3.594431 -0.880922 -0.752401
H -3.907729 -1.789907 0.760574
H 0.468919 -1.640967 0.873064