28
Extracted from mol_476.out
O 4.455549 -1.495231 0.682817
B 3.121761 -1.683133 0.883698
O 2.718577 -2.830527 1.510143
C 2.133061 -0.559931 0.387171
C 2.630382 0.696540 -0.003356
C 1.764099 1.711699 -0.425932
C 2.306755 3.034403 -0.831986
O 1.636274 3.967612 -1.210712
C 0.380078 1.481282 -0.475977
C -0.155596 0.239993 -0.106757
C -1.621085 -0.016191 -0.164365
C -2.124366 -1.268239 -0.566376
C -3.499625 -1.506990 -0.619314
C -4.403245 -0.498512 -0.270808
C -3.918946 0.750998 0.128975
C -2.543904 0.989547 0.180895
C 0.743895 -0.758209 0.323082
H 4.983775 -2.223822 1.036079
H 1.772011 -2.880553 1.685630
H 3.708567 0.880400 0.027000
H 3.423239 3.117449 -0.761573
H -0.260018 2.291492 -0.832711
H -1.431148 -2.057494 -0.868507
H -3.867089 -2.484220 -0.944247
H -5.479633 -0.684823 -0.312199
H -4.616168 1.545185 0.409159
H -2.179487 1.964189 0.514701
H 0.322286 -1.722911 0.625472