32
Extracted from mol_700.out
O -5.294129 -0.454641 -2.205845
B -4.981124 -0.463641 -0.872945
O -5.982630 -0.622959 0.018462
C -3.418848 -0.326793 -0.557517
C -2.575213 -0.561540 -1.672525
C -1.190795 -0.486858 -1.620433
C -0.546579 -0.135494 -0.420344
O 0.800592 -0.078591 -0.447092
C 1.516659 0.288679 0.735907
C 2.991045 0.281834 0.427233
C 3.748601 -0.886780 0.594828
C 5.109376 -0.903766 0.277496
C 5.727229 0.250511 -0.214313
C 4.980158 1.420290 -0.386710
C 3.619702 1.433863 -0.068195
C -1.331424 0.133229 0.705335
C -2.726803 0.020875 0.620647
N -3.411984 0.321659 1.905478
O -2.843626 1.051968 2.694773
O -4.500109 -0.198644 2.144107
H -6.244659 -0.573673 -2.334570
H -5.642792 -0.612547 0.932538
H -3.052774 -0.811584 -2.621015
H -0.577129 -0.688929 -2.500996
H 1.193019 1.291868 1.066528
H 1.285325 -0.427741 1.544585
H 3.267664 -1.791389 0.978721
H 5.689721 -1.819856 0.415945
H 6.792436 0.239407 -0.460393
H 5.459314 2.325563 -0.768859
H 3.037394 2.349979 -0.204526
H -0.897618 0.435703 1.654652