18
Extracted from mol_1573.out
O -3.136782 1.282407 -0.470657
B -2.543358 0.059008 -0.442083
O -3.327519 -1.049414 -0.592911
C -0.975902 0.002016 -0.242816
C -0.283489 -1.200506 -0.001768
C 1.096120 -1.212432 0.164717
C 1.846165 -0.023151 0.095889
C 3.324095 -0.133251 0.283496
O 3.892469 -1.181572 0.487717
C 1.158720 1.181369 -0.141779
I 2.160914 3.069697 -0.268778
C -0.228711 1.193093 -0.305443
H -4.091636 1.225205 -0.611080
H -2.848662 -1.885797 -0.611704
H -0.825817 -2.149694 0.068716
H 1.646031 -2.137682 0.354736
H 3.888916 0.826578 0.223407
H -0.751555 2.134126 -0.484618