19
Extracted from mol_87.out
O -2.203433 1.501434 -0.896606
B -0.926924 1.721714 -0.472142
O -0.527288 3.026858 -0.336433
C 0.045181 0.513299 -0.184786
C 1.424040 0.711131 -0.393899
C 2.373427 -0.290402 -0.184656
C 1.928114 -1.534988 0.259986
Cl 3.082254 -2.819390 0.544173
C 0.568852 -1.771226 0.482234
C -0.384278 -0.766512 0.259147
C -1.841478 -1.083675 0.506298
H -2.674993 2.332918 -1.045889
H 0.352141 3.125448 0.046638
H 1.780351 1.681942 -0.756006
H 3.435717 -0.114827 -0.362745
H 0.253518 -2.756124 0.833433
H -2.307213 -0.348356 1.181013
H -1.959115 -2.082928 0.950616
H -2.418875 -1.046315 -0.430377