21
Extracted from mol_119.out
O 0.032753 2.666607 -0.878168
B 0.098540 1.836799 0.196049
O 0.391080 2.386553 1.417024
C -0.110428 0.276582 -0.009178
C -1.396929 -0.290362 -0.158498
C -2.606443 0.575216 -0.138026
O -3.744459 0.173814 -0.231510
C -1.569558 -1.675672 -0.320860
C -0.457796 -2.510015 -0.341266
C 0.822907 -1.961339 -0.201610
C 1.016475 -0.581832 -0.035810
C 2.419259 -0.022938 0.071106
H 0.196490 3.589822 -0.636740
H 0.401722 1.744739 2.137193
H -2.400179 1.672256 -0.029877
H -2.585101 -2.063877 -0.426812
H -0.577722 -3.589650 -0.465554
H 1.695290 -2.621776 -0.223627
H 2.713882 0.483443 -0.864808
H 2.502196 0.725893 0.874742
H 3.158020 -0.814264 0.266233