19
Extracted from mol_1436.out
O -3.542994 0.413069 0.575882
B -2.277282 0.887899 0.444591
O -2.071866 2.231381 0.553415
C -0.980207 0.010114 0.169814
C 0.246510 0.698497 0.062022
C 1.453445 0.041338 -0.179986
C 2.748748 0.814463 -0.236731
F 2.555723 2.098150 -0.579488
F 3.604772 0.279454 -1.127710
F 3.377631 0.813243 0.954845
C 1.470120 -1.351098 -0.328397
C 0.281046 -2.068539 -0.228320
C -0.915219 -1.386717 0.018159
Cl -2.363977 -2.396806 0.126218
H -3.606017 -0.548875 0.485498
H -2.896312 2.707971 0.718637
H 0.235411 1.784319 0.167673
H 2.407562 -1.874273 -0.528505
H 0.272907 -3.153589 -0.343106