22
Extracted from mol_1410.out
O -2.623438 -2.710433 -0.255162
B -2.950619 -1.397369 -0.120111
O -4.266453 -1.071999 0.063684
C -1.785070 -0.333940 -0.179879
C -0.444950 -0.752787 -0.118799
C 0.607101 0.171881 -0.163968
C 2.009072 -0.347828 -0.087231
O 2.299268 -1.515982 0.021775
O 2.926926 0.636234 -0.153636
C 4.293520 0.229765 -0.087517
C 0.335115 1.544213 -0.279752
C -0.992624 1.966134 -0.347522
Cl -1.349917 3.673770 -0.499007
C -2.041679 1.043907 -0.297607
H -3.394827 -3.289205 -0.187749
H -4.433811 -0.134824 0.214344
H -0.203992 -1.813885 -0.034195
H 4.890064 1.147612 -0.162573
H 4.538341 -0.454679 -0.914261
H 4.502768 -0.285783 0.862510
H 1.149115 2.267442 -0.317797
H -3.063910 1.427755 -0.364938