20
Extracted from mol_174.out
O 3.059871 -1.978914 0.350159
B 2.654526 -0.688067 0.167378
O 3.647404 0.229144 0.081771
C 1.098335 -0.347941 0.050271
C 0.193018 -1.356945 -0.327158
C -1.178399 -1.131719 -0.443575
C -1.730752 0.133437 -0.182234
C -3.216104 0.370004 -0.295318
C -0.853324 1.159587 0.182655
C 0.531610 0.929782 0.289673
C 1.368158 2.048730 0.635702
N 2.049864 2.956731 0.885247
H 2.340242 -2.598181 0.509679
H 3.373811 1.150370 -0.008455
H 0.571788 -2.357805 -0.557634
H -1.834891 -1.953158 -0.746272
H -3.770478 -0.238127 0.439410
H -3.474730 1.424863 -0.122687
H -3.588832 0.087200 -1.293729
H -1.241119 2.161007 0.385120