21
Extracted from mol_721.out
O -2.857924 -0.850901 -0.068881
B -2.244259 0.322673 0.244257
O -3.009943 1.418488 0.534081
C -0.675041 0.493330 0.291420
C 0.224561 -0.561043 0.013115
O -0.333556 -1.780623 -0.308467
C 0.500986 -2.880132 -0.602225
C 1.609301 -0.354305 0.067455
C 2.118362 0.903765 0.399864
C 1.250845 1.964920 0.680541
O 1.794800 3.172441 0.999787
C -0.130393 1.744602 0.622310
H -2.188115 -1.532494 -0.248554
H -3.952241 1.211757 0.476915
H 1.139251 -2.684957 -1.482592
H -0.161596 -3.727968 -0.824387
H 1.145492 -3.144856 0.255087
H 2.309088 -1.162402 -0.146424
H 3.196310 1.074583 0.444636
H 1.084262 3.806236 1.164407
H -0.820189 2.566883 0.839653