18
Extracted from mol_834.out
O 3.010894 -1.249311 -0.033340
B 2.241847 -0.123125 -0.067801
O 2.844457 1.092890 -0.152127
C 0.673355 -0.322326 -0.005025
C 0.130440 -1.615141 0.086030
C -1.248375 -1.851188 0.145630
C -2.130178 -0.775742 0.114566
C -1.630143 0.537301 0.023664
C -2.491771 1.680254 -0.011656
N -3.122111 2.657508 -0.044894
C -0.232597 0.756672 -0.035534
O 0.266858 2.018358 -0.123198
H 3.953504 -1.039426 -0.075620
H 2.197636 1.814822 -0.169782
H 0.825343 -2.458244 0.110150
H -1.632235 -2.871206 0.216015
H -3.210352 -0.929577 0.159509
H -0.446570 2.677481 -0.136587