22
Extracted from mol_986.out
O 3.365611 -0.830670 0.024432
B 2.334779 0.030409 -0.207133
O 2.592611 1.338945 -0.470587
C 0.866103 -0.565664 -0.190375
C 0.683367 -1.957636 -0.263077
C -0.587609 -2.529703 -0.362753
C -1.708532 -1.705581 -0.406651
C -1.555778 -0.319238 -0.301830
N -2.787433 0.489308 -0.377483
O -3.714672 0.022474 -1.020269
O -2.820040 1.559919 0.208214
C -0.276375 0.265015 -0.183127
O -0.106700 1.625877 -0.144929
C -0.106690 2.236322 1.154176
H 4.223181 -0.388285 -0.037503
H 1.760631 1.817409 -0.629774
H 1.569899 -2.596554 -0.254208
H -0.705848 -3.613996 -0.424345
H -2.715064 -2.107862 -0.525321
H 0.015346 3.315074 0.987807
H -1.061648 2.055085 1.664813
H 0.734860 1.859356 1.759924