22
Extracted from mol_1864.out
O -3.319873 -1.986935 0.182305
B -2.703524 -0.901839 0.743742
O -3.381645 -0.163473 1.661683
C -1.147934 -0.607782 0.574868
C -0.192706 -1.220258 1.409419
C 1.170193 -0.957644 1.288789
C 1.652216 -0.054155 0.317525
S 3.405350 0.201204 0.257043
C 3.607017 1.426703 -1.068322
C 0.727775 0.573539 -0.525146
C -0.629419 0.278330 -0.372947
N -1.581701 0.947873 -1.284472
O -1.156908 1.779841 -2.066090
O -2.758712 0.612967 -1.201834
H -2.789278 -2.442496 -0.480604
H -4.311591 -0.423881 1.716101
H -0.524693 -1.918820 2.182855
H 1.877889 -1.453916 1.958817
H 4.688176 1.616158 -1.128206
H 3.260183 1.039795 -2.038127
H 3.093033 2.370092 -0.831140
H 1.016153 1.284696 -1.296261