20
Extracted from mol_1512.out
O -2.350886 -2.321532 -0.728790
B -2.399447 -1.176073 0.008019
O -3.524113 -0.987267 0.751633
C -1.206455 -0.131760 0.004457
C 0.129870 -0.557393 -0.109346
C 1.194536 0.354508 -0.112597
C 2.645123 -0.051722 -0.235954
O 3.498445 0.736023 -0.603673
N 2.933215 -1.354421 0.072552
C 0.925752 1.729253 -0.036815
C -0.393860 2.162772 0.080044
Br -0.763357 4.030925 0.195885
C -1.452350 1.249239 0.110277
H -1.598087 -2.358084 -1.329590
H -3.477268 -0.219152 1.332040
H 0.337642 -1.626964 -0.210094
H 2.301789 -1.919903 0.624405
H 3.913787 -1.613067 0.068291
H 1.761359 2.429668 -0.074002
H -2.475698 1.624952 0.193258