21
Extracted from mol_1809.out
O -3.537695 -0.896994 -0.958382
B -2.975190 -0.625691 0.248660
O -3.768872 -0.809689 1.340009
C -1.475351 -0.116691 0.379924
C -1.075310 0.747922 1.416079
C 0.239490 1.192335 1.513123
C 1.207021 0.773745 0.576605
C 2.538687 1.280898 0.757499
N 3.610755 1.700824 0.916537
C 0.840335 -0.099744 -0.479196
C 1.731924 -0.647244 -1.590967
O 1.226864 -1.285373 -2.502078
N 3.068171 -0.420432 -1.530550
C -0.497327 -0.512139 -0.546035
H -2.972311 -0.689285 -1.711190
H -3.307672 -0.707001 2.179636
H -1.803486 1.098315 2.154350
H 0.537943 1.872760 2.313412
H 3.622396 -0.789758 -2.294621
H 3.532770 0.114870 -0.808520
H -0.743142 -1.181629 -1.374294