34
Extracted from mol_705.out
O 0.262135 2.127060 -0.832457
B 1.421159 1.456694 -1.066660
O 2.166583 1.896059 -2.139333
C 1.910322 0.195599 -0.238713
C 3.276714 -0.168821 -0.060282
B 4.575014 0.677299 -0.488718
O 5.671173 0.640385 0.336175
O 4.717790 1.395646 -1.620930
C 3.575523 -1.377354 0.607069
C 2.577760 -2.209714 1.106326
C 1.238018 -1.838682 0.993746
C 0.917816 -0.640774 0.343105
O -0.382706 -0.207942 0.237099
C -1.457678 -1.026149 0.677315
C -2.773386 -0.348887 0.370934
C -2.953143 0.394981 -0.805711
C -4.192680 0.973214 -1.093617
C -5.269386 0.808186 -0.216520
C -5.097818 0.068375 0.957252
C -3.855360 -0.501075 1.250478
H -0.282800 1.662173 -0.177766
H 1.756747 2.662389 -2.565945
H 5.502597 0.175031 1.162346
H 3.877687 1.499427 -2.101871
H 4.619127 -1.683724 0.722853
H 2.838029 -3.149866 1.600717
H 0.463469 -2.479267 1.414079
H -1.402015 -2.005013 0.162231
H -1.375654 -1.219656 1.762246
H -2.113176 0.535360 -1.489187
H -4.317336 1.556065 -2.010148
H -6.238308 1.260232 -0.444348
H -5.931291 -0.058739 1.653231
H -3.724923 -1.068513 2.177109