17
Extracted from mol_1447.out
O 2.709309 0.545323 0.822758
B 1.961712 -0.175900 -0.058805
O 2.582776 -0.846805 -1.057936
C 0.370859 -0.219859 0.003101
C -0.405751 0.946147 -0.219824
C 0.252606 2.205968 -0.454482
N 0.776286 3.227531 -0.631521
C -1.812408 0.914317 -0.207204
C -2.470387 -0.288729 0.041460
C -1.736440 -1.451249 0.285499
C -0.338425 -1.402333 0.264387
Cl 0.539011 -2.879174 0.613774
H 2.202778 1.048478 1.471093
H 3.543565 -0.733565 -1.028900
H -2.375058 1.831495 -0.391054
H -3.562370 -0.323832 0.052891
H -2.238061 -2.397811 0.494762