20
Extracted from mol_1520.out
O -1.714686 2.145484 -1.490864
B -0.934732 1.703576 -0.457905
O -0.318384 2.629994 0.328130
C -0.805225 0.171991 -0.061567
C -1.819477 -0.476598 0.662298
C -1.688024 -1.815937 1.037548
C -0.537848 -2.529558 0.696055
C 0.476599 -1.897978 -0.031668
Br 2.029036 -2.924318 -0.460547
C 0.354574 -0.550680 -0.421943
S 1.584055 0.281503 -1.434447
C 2.714646 0.925814 -0.146839
H -2.096977 1.434288 -2.018105
H -0.467763 3.529802 0.004518
H -2.721773 0.074027 0.945365
H -2.481319 -2.311883 1.603482
H -0.422729 -3.574856 0.988450
H 3.512376 1.461499 -0.682680
H 3.158182 0.100451 0.428320
H 2.179470 1.623379 0.512401