16
Extracted from mol_1278.out
O -2.709822 -1.174011 0.879288
B -2.132696 -0.252197 0.060753
O -2.979013 0.479911 -0.714552
C -0.559781 -0.042160 0.012298
C 0.315901 -1.128829 0.199201
C 1.699833 -0.938552 0.149976
Br 2.865320 -2.427795 0.391563
C 2.250875 0.325587 -0.073873
C 1.373624 1.394312 -0.252851
F 1.884217 2.614114 -0.462565
C -0.008975 1.231249 -0.219259
H -2.086987 -1.600252 1.478793
H -2.525841 1.047761 -1.347874
H -0.076303 -2.134834 0.366222
H 3.328203 0.491178 -0.110416
H -0.638557 2.114519 -0.356705