18
Extracted from mol_1548.out
O -2.386906 -1.912940 0.982642
B -2.217750 -0.748860 0.287964
O -3.235506 -0.286421 -0.476064
C -0.826413 0.015195 0.283523
C 0.320137 -0.713215 -0.078377
C 1.568670 -0.095506 -0.141143
N 2.747926 -0.894183 -0.534151
O 2.573896 -2.080078 -0.767241
O 3.821857 -0.318112 -0.598762
C 1.734042 1.255089 0.164484
C 0.615211 1.992664 0.546867
C -0.641374 1.374945 0.603110
Br -2.114102 2.440041 1.181165
H -1.633073 -2.164173 1.529627
H -4.023688 -0.844544 -0.414848
H 0.256092 -1.772802 -0.332478
H 2.725182 1.704921 0.105882
H 0.715797 3.047982 0.805541