23
Extracted from mol_1178.out
O -4.693827 -0.641016 -0.786373
B -3.701961 -0.370733 0.104976
O -4.067509 -0.184476 1.409262
C -2.150646 -0.244499 -0.203426
C -1.320675 0.060108 0.902552
C 0.060606 0.210971 0.828303
C 0.700194 0.056112 -0.413941
N 2.084325 0.186379 -0.603624
C 3.071211 0.468076 0.327793
O 2.852677 0.659454 1.506782
C 4.472671 0.504008 -0.265580
C -0.083112 -0.247642 -1.543300
C -1.464463 -0.389969 -1.423350
I -2.457782 -0.856761 -3.282509
H -4.397702 -0.768059 -1.700374
H -5.023142 -0.275359 1.519681
H -1.805703 0.182809 1.873200
H 0.650875 0.445310 1.710733
H 2.399831 0.048966 -1.557286
H 4.771218 -0.498142 -0.616460
H 5.171301 0.831484 0.513750
H 4.531425 1.194461 -1.123037
H 0.400187 -0.371484 -2.515255