19
Extracted from mol_847.out
O 3.021193 -0.158152 -0.389951
B 2.045291 0.438601 0.342928
O 2.444640 1.347171 1.254597
C 0.490646 0.032587 0.096591
C -0.647228 0.862109 0.196441
N -0.561060 2.277598 0.642752
O -1.224862 3.092192 0.033422
O 0.116063 2.545433 1.630588
C -1.953198 0.465694 -0.110117
C -2.181166 -0.849756 -0.501887
C -1.104508 -1.724713 -0.621224
C 0.197043 -1.282689 -0.350315
O 1.247088 -2.140968 -0.520007
H 2.704712 -0.926263 -0.881885
H 1.703594 1.785175 1.704226
H -2.766804 1.186039 -0.032052
H -3.195048 -1.191394 -0.722047
H -1.266482 -2.759024 -0.941414
H 0.930084 -2.999639 -0.830646