22
Extracted from mol_1663.out
O -0.071623 2.798481 0.917993
B 0.099221 1.474841 1.235640
O 0.315232 1.141829 2.540203
C -0.284652 0.281649 0.235759
C 0.741658 -0.440511 -0.410764
C 2.135664 0.037752 -0.126482
O 2.303698 1.130624 0.406207
N 3.179239 -0.756206 -0.486915
C 0.444025 -1.494930 -1.285181
C -0.884447 -1.865406 -1.521057
C -1.910899 -1.174110 -0.884231
C -1.617589 -0.106043 -0.016591
C -2.755541 0.610545 0.627969
O -3.919617 0.318544 0.467742
H -0.165197 2.966178 -0.026108
H 0.524716 1.923352 3.070103
H 3.052270 -1.728590 -0.731793
H 4.109275 -0.444947 -0.230439
H 1.242865 -2.023176 -1.813456
H -1.110861 -2.685660 -2.206964
H -2.960132 -1.434643 -1.043476
H -2.467306 1.470426 1.281840