25
Extracted from mol_293.out
O 4.154919 -0.769110 -0.984030
B 2.861196 -0.620604 -1.388105
O 2.539318 -1.196306 -2.581727
C 1.796663 0.169392 -0.523100
C 2.163655 1.264014 0.279151
C 1.213486 1.951133 1.034211
C -0.125326 1.542977 1.007618
I -1.477304 2.668628 2.231403
C -0.554351 0.453871 0.223667
C -1.994052 -0.050837 0.202263
C -2.205480 -1.128829 1.283370
C -2.453042 -0.553790 -1.174781
C 0.440654 -0.198809 -0.527950
H 4.313747 -0.435258 -0.093949
H 1.648251 -0.978619 -2.877430
H 3.203225 1.607302 0.308041
H 1.512542 2.806886 1.642327
H -2.635202 0.806344 0.463014
H -1.942899 -0.752772 2.284164
H -1.581760 -2.015544 1.080530
H -3.259072 -1.452645 1.308243
H -1.946068 -1.487717 -1.468419
H -3.533028 -0.770458 -1.152966
H -2.274240 0.194834 -1.963077
H 0.134172 -1.054084 -1.137592