23
Extracted from mol_974.out
O -3.367882 -0.247508 1.068930
B -2.741858 0.530234 0.138941
O -3.394433 1.403192 -0.689929
C -1.168125 0.512077 0.051638
C -0.500287 1.753010 -0.020652
C 0.885559 1.853837 -0.047194
C 1.672075 0.690694 -0.022921
O 3.014495 0.867586 -0.055120
C 3.864347 -0.259345 -0.030891
C 1.040982 -0.560564 0.016484
C -0.357918 -0.640405 0.058243
C -0.974946 -2.025135 0.084897
F -0.109550 -2.968169 -0.344947
F -1.360308 -2.394355 1.317033
F -2.057622 -2.105045 -0.716034
H -4.332384 -0.220722 1.063208
H -4.352160 1.444732 -0.577669
H -1.095671 2.669130 -0.055284
H 1.388307 2.822352 -0.094497
H 4.893072 0.125407 -0.049178
H 3.722287 -0.860631 0.885219
H 3.710074 -0.909798 -0.910815
H 1.621946 -1.480574 -0.000971