31
Extracted from mol_243.out
O 4.670970 1.736476 -0.245181
B 3.845597 0.644005 -0.193848
O 4.413302 -0.588373 -0.335270
C 2.289062 0.734982 0.009817
C 1.644662 1.927965 0.379121
C 0.261680 1.987445 0.546600
C -0.499021 0.833624 0.339845
O -1.873299 0.818789 0.558856
C -2.705596 1.806650 0.105994
O -2.340810 2.760502 -0.523938
C -4.125535 1.501684 0.512478
C 0.091816 -0.391717 -0.029426
C -0.767756 -1.638841 -0.210076
C -1.075715 -2.291847 1.152476
C -0.174263 -2.663026 -1.186464
C 1.484871 -0.404977 -0.180059
H 4.207956 2.580847 -0.200886
H 5.367698 -0.529554 -0.476646
H 2.221271 2.843057 0.555606
H -0.226182 2.919317 0.829148
H -4.187724 1.381116 1.605071
H -4.448900 0.550257 0.061693
H -4.783207 2.314492 0.181745
H -1.729709 -1.300956 -0.630802
H -1.566120 -1.581247 1.834851
H -1.743251 -3.160858 1.026962
H -0.148626 -2.643349 1.635420
H -0.899610 -3.472066 -1.369977
H 0.076965 -2.205463 -2.156500
H 0.739728 -3.133011 -0.787999
H 1.979745 -1.335922 -0.462371