22
Extracted from mol_1044.out
O 4.212313 0.154548 -0.172742
B 3.028173 -0.517938 -0.153037
O 3.058569 -1.883025 -0.197674
C 1.696820 0.328912 -0.081454
C 1.768885 1.732621 -0.087626
C 0.595078 2.486199 -0.026804
Br 0.691419 4.393486 -0.036385
C -0.655254 1.873565 0.041728
C -0.725989 0.474331 0.048992
O -2.022589 -0.012334 0.124860
C -2.397573 -1.321162 0.111343
O -1.642243 -2.254935 0.037071
C -3.899979 -1.416302 0.201827
C 0.438727 -0.298761 -0.012007
H 4.969333 -0.444623 -0.221120
H 2.193706 -2.309722 -0.192312
H 2.740630 2.225571 -0.139837
H -1.576283 2.455384 0.090401
H -4.360153 -0.901407 -0.656135
H -4.199134 -2.471196 0.211547
H -4.255964 -0.911350 1.113169
H 0.341508 -1.381861 -0.003805