17
Extracted from mol_1445.out
O -3.254357 -0.884839 -0.397498
B -2.415472 0.171267 -0.280791
O -2.998590 1.398830 -0.182694
C -0.824922 0.033193 -0.190473
C -0.119492 0.948465 0.619403
C 1.263236 0.906952 0.780369
C 2.005822 -0.079858 0.108411
C 3.434827 -0.140343 0.250724
N 4.588758 -0.188036 0.369204
C 1.342393 -1.014809 -0.704618
C -0.045151 -0.948788 -0.831326
Cl -0.799410 -2.168561 -1.856002
H -2.797984 -1.725657 -0.528697
H -2.376298 2.133954 -0.188967
H -0.680896 1.716698 1.159661
H 1.772520 1.629201 1.421029
H 1.905015 -1.787666 -1.229448