31
Extracted from mol_238.out
O -3.013184 -0.904912 2.162543
B -2.821194 -1.369366 0.892686
O -3.943396 -1.822869 0.262233
C -1.398388 -1.457106 0.192388
C -1.018282 -2.724679 -0.292440
C 0.218842 -2.930596 -0.902739
C 1.097960 -1.859772 -1.051121
C 0.728662 -0.596534 -0.580390
O 1.567238 0.496644 -0.797707
C 2.899798 0.458749 -0.483911
O 3.443357 -0.479524 0.029538
C 3.553400 1.761930 -0.869350
C -0.511213 -0.358130 0.045403
C -0.928868 1.039331 0.512053
C -1.102090 2.028603 -0.656371
C -0.024644 1.614944 1.618150
H -2.190746 -0.659752 2.600956
H -3.768728 -2.095131 -0.646144
H -1.702867 -3.571184 -0.177960
H 0.502021 -3.922030 -1.265707
H 2.068114 -1.997144 -1.528110
H 3.366391 1.979678 -1.932089
H 4.631176 1.701573 -0.676072
H 3.116622 2.588487 -0.286615
H -1.925132 0.920555 0.963828
H -1.497221 2.989426 -0.286628
H -1.813245 1.638885 -1.402210
H -0.147477 2.223568 -1.165970
H 0.979560 1.860877 1.243422
H 0.097009 0.904651 2.452839
H -0.463472 2.540829 2.025495