34
Extracted from mol_192.out
O -3.443050 1.740897 -0.362776
B -2.275748 2.147011 -0.964520
O -2.391992 2.993860 -2.026743
C -0.829898 1.762017 -0.456347
C 0.028659 2.850572 -0.219318
C 1.305263 2.656175 0.303042
C 1.732533 1.359727 0.576575
C 0.921698 0.236668 0.331125
C 1.521521 -1.135352 0.659560
C 2.769751 -1.438854 -0.190179
C 1.824728 -1.280996 2.162615
C -0.381715 0.434948 -0.196695
C -1.336353 -0.717671 -0.557277
C -0.828918 -1.616554 -1.702852
C -1.842603 -1.532253 0.650617
H -3.300116 1.191949 0.417011
H -3.316926 3.212901 -2.207802
H -0.316097 3.862692 -0.448897
H 1.965512 3.506812 0.493729
H 2.735283 1.211703 0.986894
H 0.782171 -1.905719 0.414344
H 3.143332 -2.455547 0.017950
H 3.590853 -0.735199 0.023299
H 2.547828 -1.371521 -1.267065
H 0.924015 -1.105900 2.772586
H 2.593852 -0.564890 2.495205
H 2.197075 -2.294524 2.387824
H -2.234502 -0.233395 -0.966534
H -1.632663 -2.295591 -2.033824
H 0.030036 -2.242374 -1.418168
H -0.525924 -1.008197 -2.569598
H -2.639673 -2.226679 0.335792
H -1.056070 -2.133446 1.130413
H -2.261859 -0.873271 1.430011