25
Extracted from mol_1186.out
O -4.079816 -0.547067 -1.163735
B -2.801689 -1.015105 -1.148477
O -2.539296 -2.205347 -1.766178
C -1.703669 -0.148845 -0.413579
C -2.061937 1.037296 0.243370
C -1.089084 1.807096 0.899104
C -1.463651 3.064391 1.597831
O -2.583492 3.514190 1.661202
C 0.248846 1.394756 0.899876
C 0.632991 0.212401 0.248014
N 1.994431 -0.150301 0.281690
C 2.611041 -1.253349 -0.271529
O 2.025088 -2.115628 -0.901002
C 4.113282 -1.320404 -0.041649
C -0.353865 -0.548909 -0.404146
H -4.679843 -1.143059 -1.631832
H -1.620418 -2.494551 -1.715878
H -3.098978 1.378750 0.255166
H -0.602271 3.595975 2.085997
H 0.998126 2.006285 1.415805
H 2.595648 0.492114 0.783485
H 4.515841 -0.507609 0.580903
H 4.350695 -2.286595 0.428764
H 4.617750 -1.306343 -1.020366
H -0.025729 -1.460142 -0.902836