24
Extracted from mol_860.out
O -3.221978 0.790714 -0.754101
B -2.783672 -0.448451 -0.401468
O -3.687119 -1.458510 -0.228856
C -1.250943 -0.783082 -0.197255
C -0.835488 -2.120266 -0.025562
C 0.510793 -2.439272 0.119460
C 1.485521 -1.432928 0.086142
C 1.108574 -0.096127 -0.089771
O 1.979835 0.947373 -0.158430
C 3.365272 0.692653 -0.090153
C -0.266409 0.219117 -0.218048
O -0.646460 1.532989 -0.428836
C -0.455319 2.443469 0.653573
H -2.451324 1.380817 -0.849166
H -4.589037 -1.154768 -0.397728
H -1.594369 -2.905586 -0.007864
H 0.821453 -3.478763 0.254450
H 2.538011 -1.699634 0.188762
H 3.701032 0.032462 -0.910258
H 3.867160 1.665041 -0.187933
H 3.654788 0.236027 0.874089
H -0.846835 3.415164 0.320153
H 0.611151 2.546911 0.901160
H -1.014638 2.114648 1.547640