26
Extracted from mol_435.out
O 3.208958 -0.513445 2.205129
B 3.509164 -0.361218 0.884095
O 4.831318 -0.304880 0.530922
C 2.322967 -0.254584 -0.144121
C 2.521267 -0.295059 -1.536662
C 1.449113 -0.187481 -2.421761
C 0.162152 -0.034823 -1.912528
F -0.849750 0.055611 -2.792069
C -0.108078 0.008768 -0.532904
C -1.487371 0.148867 0.009076
C -2.427598 1.023199 -0.569894
C -3.705886 1.161267 -0.025166
C -4.076696 0.426684 1.105435
C -3.155820 -0.448997 1.688056
C -1.876149 -0.585863 1.145707
C 1.003837 -0.107282 0.321044
H 4.002962 -0.548094 2.755212
H 4.985908 -0.140653 -0.406105
H 3.525613 -0.421938 -1.955749
H 1.583919 -0.226718 -3.504819
H -2.152692 1.606641 -1.449813
H -4.417100 1.851156 -0.487635
H -5.079154 0.534106 1.528318
H -3.436097 -1.035469 2.567294
H -1.171953 -1.287562 1.599391
H 0.837166 -0.062231 1.399547