28
Extracted from mol_535.out
O -3.067200 2.213184 -1.661611
B -3.476148 1.272124 -0.768204
O -4.795312 1.245296 -0.411914
C -2.392853 0.273554 -0.197923
C -2.734404 -0.858824 0.563389
C -1.752269 -1.715773 1.053049
C -0.411052 -1.453514 0.767379
N 0.560778 -2.467110 1.234601
O 0.372738 -2.943223 2.344351
O 1.457400 -2.784582 0.474048
C -0.001588 -0.322287 0.033702
C 1.419397 0.054905 -0.209345
C 1.844655 0.413564 -1.499861
C 3.161896 0.819061 -1.729469
C 4.072420 0.882359 -0.671090
C 3.657734 0.535910 0.619160
C 2.343844 0.125152 0.848276
C -1.028872 0.515924 -0.436317
H -3.790420 2.789323 -1.944137
H -5.019866 0.593606 0.261815
H -3.781739 -1.096912 0.777199
H -2.003161 -2.598896 1.641878
H 1.141502 0.354449 -2.334483
H 3.477906 1.083030 -2.742249
H 5.102696 1.201065 -0.850086
H 4.360876 0.588348 1.454564
H 2.029217 -0.131217 1.863616
H -0.748173 1.411485 -0.994949