26
Extracted from mol_1740.out
O -4.063130 -1.147809 -0.231473
B -2.901228 -1.863778 -0.236990
O -2.865925 -3.232793 -0.312675
C -1.516371 -1.117166 -0.154004
C -0.365479 -1.930787 -0.170496
C 0.927200 -1.416389 -0.102287
C 1.094442 -0.028757 -0.012954
C 2.439568 0.618919 0.065946
O 2.624740 1.812715 0.145619
O 3.446953 -0.276137 0.039318
C 4.766707 0.258581 0.110762
C -0.025885 0.811339 0.005661
C -1.329886 0.295044 -0.063404
S -2.745708 1.381353 -0.038459
C -2.002696 3.036229 0.087720
H -4.881445 -1.655891 -0.283065
H -3.724056 -3.669238 -0.362132
H -0.505667 -3.011702 -0.239537
H 1.796866 -2.073885 -0.117202
H 5.448288 -0.600883 0.077243
H 4.962856 0.934743 -0.735920
H 4.911113 0.824423 1.044294
H 0.165715 1.880301 0.076164
H -1.373427 3.279826 -0.781548
H -2.858995 3.726218 0.107124
H -1.424549 3.165524 1.015023