26
Extracted from mol_1084.out
O -2.118778 3.737916 -0.011900
B -2.397034 2.574776 0.643259
O -3.518258 2.574812 1.414401
C -1.466854 1.296346 0.518374
C -1.992710 -0.000539 0.648928
C -1.179770 -1.133923 0.536942
C -1.845754 -2.482615 0.689777
O -2.960501 -2.588555 1.174148
N -1.128594 -3.565154 0.265456
C 0.200106 -0.992232 0.319136
C 0.737115 0.293701 0.191586
O 2.080729 0.585045 0.006411
C 3.055007 -0.306522 -0.329553
O 2.880500 -1.485529 -0.494267
C 4.374023 0.411607 -0.462784
C -0.087909 1.420384 0.283564
H -1.377642 3.663430 -0.623043
H -3.638122 1.762121 1.919229
H -3.057447 -0.168555 0.831347
H -1.586777 -4.467857 0.312307
H -0.303336 -3.477005 -0.311810
H 0.862116 -1.851241 0.265892
H 4.617429 0.929641 0.477855
H 5.160025 -0.311426 -0.711334
H 4.305132 1.179873 -1.248840
H 0.387303 2.401501 0.191419