28
Extracted from mol_1077.out
O 4.604526 -2.269116 -0.278806
B 3.984181 -1.146539 0.182687
O 4.749575 -0.191891 0.792557
C 2.427198 -1.024954 -0.022293
C 1.723645 -1.993952 -0.764854
C 0.350015 -1.888009 -0.966952
C -0.368007 -0.819452 -0.420984
O -1.730880 -0.821568 -0.639377
C -2.305019 0.157478 -1.411706
O -1.674156 0.998127 -1.987019
C -3.800094 -0.013100 -1.421917
C 0.292385 0.160408 0.348326
C -0.337412 1.334192 1.032622
O 0.302196 2.227803 1.539758
O -1.682151 1.296652 1.073645
C -2.315280 2.404899 1.716255
C 1.682097 0.032012 0.514874
H 5.557619 -2.247065 -0.118847
H 4.266714 0.594889 1.071319
H 2.270160 -2.837108 -1.194596
H -0.197566 -2.629283 -1.552892
H -4.065226 -1.036012 -1.729762
H -4.185183 0.130317 -0.400245
H -4.250868 0.719747 -2.101865
H -3.394104 2.210044 1.668150
H -2.072797 3.345665 1.199265
H -1.988650 2.487543 2.763796
H 2.157084 0.818277 1.108863