23
Extracted from mol_1753.out
O -1.236627 -2.946427 0.318517
B -1.891386 -1.771403 0.302249
O -3.248841 -1.774957 0.489385
C -1.261016 -0.309262 0.061666
C -2.229186 0.710846 -0.060683
C -1.906565 2.047188 -0.275338
C -0.557228 2.425340 -0.370224
C -0.190774 3.797628 -0.591477
N 0.103711 4.905661 -0.775360
C 0.434726 1.444108 -0.245643
C 0.104338 0.093193 -0.037862
C 1.258048 -0.862572 0.062183
O 1.190981 -2.079962 0.091359
O 2.442125 -0.244552 0.108449
C 3.606159 -1.074207 0.179186
H -0.268589 -2.826756 0.195788
H -3.571230 -2.676836 0.619361
H -3.279472 0.428335 0.019785
H -2.692030 2.800433 -0.368195
H 1.481755 1.733481 -0.314380
H 3.669097 -1.729362 -0.702442
H 4.461647 -0.388887 0.210850
H 3.580356 -1.701028 1.082826