28
Extracted from mol_8.out
O -3.472392 -0.835202 1.658361
B -2.309861 -0.122029 1.665770
O -1.995535 0.548278 2.821876
C -1.361354 -0.105526 0.406042
C 0.021230 0.034109 0.632974
C 0.975989 0.052042 -0.395649
C 2.466477 0.189164 -0.107587
C 2.802462 1.517959 0.592224
C 3.011592 -1.011144 0.686844
C 0.498101 -0.066589 -1.706075
C -0.868908 -0.202601 -1.964675
C -1.817568 -0.232799 -0.933134
C -3.281537 -0.390434 -1.275881
H -3.935659 -0.760720 2.504371
H -1.206833 1.097408 2.741322
H 0.376037 0.112658 1.667388
H 2.978329 0.195647 -1.086220
H 2.442284 2.380697 0.009584
H 3.891722 1.626956 0.725390
H 2.341310 1.573035 1.592771
H 4.102344 -0.927038 0.826329
H 2.805759 -1.961067 0.168730
H 2.552568 -1.071103 1.687994
H 1.204705 -0.052717 -2.542205
H -1.207828 -0.288694 -3.001658
H -3.895703 0.400323 -0.816395
H -3.681371 -1.344458 -0.897792
H -3.436362 -0.356153 -2.364788