16
Extracted from mol_1391.out
O 2.724168 -0.473246 1.208961
B 2.120849 0.063180 0.110597
O 2.948162 0.490476 -0.874433
C 0.526947 0.082581 0.008922
C -0.285208 1.113521 -0.500143
I 0.550423 2.949982 -1.226137
C -1.679576 1.007004 -0.547019
C -2.308813 -0.154714 -0.095393
C -1.527759 -1.198174 0.405829
Cl -2.293876 -2.663249 0.970154
C -0.138219 -1.077603 0.461502
H 2.109433 -0.697176 1.916451
H 2.492031 0.895269 -1.622873
H -2.285282 1.827348 -0.936461
H -3.395645 -0.248600 -0.133305
H 0.442364 -1.916602 0.853347