34
Extracted from mol_703.out
O -1.475369 -2.164633 -1.593890
B -2.488998 -1.523994 -0.950783
O -3.771233 -1.959601 -1.138211
C -2.274269 -0.289620 0.013655
C -3.382401 0.315006 0.630336
C -3.252618 1.410678 1.486675
C -1.985862 1.944865 1.772835
B -1.837085 3.167937 2.753888
O -0.654400 3.508915 3.358588
O -2.934575 3.927083 3.025488
C -0.861121 1.353421 1.162779
C -1.001109 0.261544 0.297260
O 0.069885 -0.335181 -0.325301
C 1.393768 0.153977 -0.116031
C 2.348875 -0.677044 -0.934123
C 2.627269 -0.335356 -2.266469
C 3.482577 -1.125277 -3.039128
C 4.068220 -2.269073 -2.486711
C 3.795258 -2.619787 -1.160719
C 2.938984 -1.828106 -0.390523
H -0.621833 -1.755653 -1.374372
H -3.798413 -2.713728 -1.742012
H -4.372751 -0.096927 0.419798
H -4.138128 1.859749 1.942527
H 0.058127 2.879398 3.199772
H -2.738863 4.630928 3.658719
H 0.131353 1.768302 1.352535
H 1.447918 1.215577 -0.417116
H 1.647366 0.090320 0.957573
H 2.170117 0.558441 -2.701386
H 3.693528 -0.847139 -4.075104
H 4.739050 -2.886765 -3.089833
H 4.250969 -3.512701 -0.724694
H 2.725762 -2.105555 0.646111