16
Extracted from mol_1470.out
O -2.543456 0.250883 -1.252638
B -1.918657 0.336418 -0.044159
O -2.544647 0.600660 1.138437
C -0.366165 0.023871 0.006306
C 0.076450 -1.264305 0.347604
C 1.436989 -1.576736 0.391293
C 2.386043 -0.598171 0.096642
C 1.973311 0.696431 -0.240984
Br 3.317518 1.987797 -0.627711
C 0.602861 1.000029 -0.283902
Br 0.001646 2.760570 -0.725406
H -3.487777 0.451780 -1.256290
H -3.491739 0.780597 1.083246
H -0.660089 -2.037679 0.583560
H 1.764894 -2.585038 0.656722
H 3.452822 -0.827106 0.127279