33
Extracted from mol_427.out
O -2.895274 -2.506734 -1.032541
B -1.794831 -1.863443 -1.546338
O -1.434353 -2.238164 -2.803491
C -1.014578 -0.752768 -0.738484
C -1.658421 0.255665 0.029501
N -3.069553 0.293130 0.033036
C -3.926418 1.168228 0.678516
O -3.561452 2.065172 1.413430
C -5.396559 0.895762 0.387748
C -0.884799 1.193869 0.736319
C 0.506400 1.136047 0.680892
C 1.183983 0.161974 -0.074084
C 2.668873 0.111819 -0.129922
C 3.355120 -1.117574 -0.176023
C 4.750023 -1.162984 -0.231444
C 5.494528 0.020628 -0.239946
C 4.829122 1.249758 -0.193045
C 3.434307 1.294391 -0.139477
C 0.390234 -0.761446 -0.775089
H -2.982567 -2.387804 -0.078937
H -0.727854 -1.690556 -3.166524
H -3.516010 -0.395689 -0.563738
H -5.998066 1.665376 0.886362
H -5.695514 -0.095677 0.767273
H -5.601791 0.916034 -0.695193
H -1.387120 1.956478 1.326729
H 1.079549 1.862901 1.262018
H 2.789462 -2.052147 -0.141675
H 5.258669 -2.130637 -0.258088
H 6.586347 -0.014584 -0.282128
H 5.399569 2.182575 -0.206950
H 2.928769 2.263228 -0.128971
H 0.890201 -1.522826 -1.382090