22
Extracted from mol_1032.out
O 3.776822 0.096848 -1.646291
B 3.002498 0.660618 -0.669089
O 3.402466 1.833559 -0.118303
C 1.713028 -0.074298 -0.115790
C 1.844180 -1.363303 0.436303
C 0.748782 -2.053118 0.961335
C -0.518322 -1.469877 0.925808
C -0.682084 -0.201089 0.369606
O -1.929783 0.392670 0.377769
C -2.721518 0.282980 -0.741616
O -2.426380 -0.387505 -1.689391
C -3.961361 1.119794 -0.575906
C 0.426442 0.487369 -0.146413
Cl 0.164850 2.065619 -0.857707
H 3.404360 -0.714871 -2.011258
H 4.209681 2.171497 -0.530958
H 2.833857 -1.829309 0.468687
H 0.879394 -3.047026 1.396292
H -1.395708 -1.983602 1.324460
H -4.452187 0.893925 0.382691
H -3.673513 2.183021 -0.553316
H -4.645501 0.936096 -1.413008