33
Extracted from mol_32.out
O -4.690710 1.495222 -2.408520
B -3.413376 1.018202 -2.279529
O -2.776040 0.601167 -3.412168
C -2.645236 0.922039 -0.908742
C -1.337661 0.394276 -0.889701
C -0.631143 0.300369 0.315515
O 0.631584 -0.189495 0.436137
C 1.317691 -0.640009 -0.727192
C 2.686601 -1.123959 -0.320042
C 2.893502 -2.465103 0.034754
C 4.154234 -2.908055 0.444279
C 5.224890 -2.010441 0.506432
C 5.028953 -0.670150 0.157732
C 3.766836 -0.231632 -0.251593
C -1.231496 0.735053 1.511474
C -2.525709 1.259294 1.520063
C -3.174410 1.694393 2.813106
C -3.217559 1.347899 0.298697
H -5.092975 1.770158 -1.576712
H -3.334657 0.699763 -4.194673
H -0.896633 0.067846 -1.831413
H 0.747983 -1.455850 -1.208749
H 1.401303 0.185918 -1.457326
H 2.057085 -3.168876 -0.011378
H 4.301941 -3.957128 0.714745
H 6.212478 -2.355847 0.824246
H 5.862837 0.035604 0.203423
H 3.615887 0.817588 -0.522413
H -0.651125 0.651318 2.434009
H -3.807258 0.890609 3.229640
H -3.822698 2.572580 2.664222
H -2.424530 1.949224 3.577438
H -4.230587 1.768026 0.314240