23
Extracted from mol_1173.out
O -1.858181 2.395745 -1.083106
B -1.241803 1.724040 -0.075358
O -0.491136 2.351340 0.897207
C -1.286308 0.145821 -0.068681
C -2.482495 -0.585252 -0.184054
I -4.397041 0.382414 -0.085327
C -2.513287 -1.976262 -0.301264
C -1.301894 -2.670905 -0.311191
C -0.087558 -2.004964 -0.164694
C -0.074335 -0.606428 -0.018562
N 1.129798 0.098251 0.183462
C 2.432412 -0.347505 0.077470
O 2.753795 -1.471896 -0.257871
C 3.462045 0.717839 0.436186
H -1.841266 3.359778 -1.037504
H -0.460194 3.315664 0.844539
H -3.461082 -2.509946 -0.382224
H -1.307119 -3.759198 -0.418707
H 0.856261 -2.544546 -0.162059
H 1.005939 1.048763 0.520571
H 4.461671 0.326643 0.211039
H 3.406600 0.962119 1.510392
H 3.295175 1.648488 -0.130265