25
Extracted from mol_1248.out
O -3.976346 -0.068592 -1.513239
B -3.472757 0.256674 -0.285357
O -4.181463 0.837362 0.728341
C -1.896122 0.182571 -0.111301
C -1.046523 1.243023 -0.465794
C 0.340383 1.182628 -0.314077
C 0.942009 0.021581 0.214712
N 2.328195 -0.120473 0.399407
C 3.337640 0.785841 0.131275
O 3.148067 1.889436 -0.342092
C 4.728311 0.300670 0.512415
C 0.122224 -1.056033 0.578436
C -1.255967 -0.946498 0.407500
N -2.092458 -2.096957 0.798900
O -3.303974 -1.984590 0.639670
O -1.550184 -3.088465 1.254493
H -4.936466 -0.017773 -1.595639
H -5.137607 0.868938 0.601984
H -1.479384 2.158383 -0.878833
H 0.972896 2.020738 -0.598029
H 2.617201 -1.009641 0.789749
H 4.813074 -0.794072 0.587612
H 5.442337 0.673463 -0.234610
H 5.006269 0.741209 1.484341
H 0.530645 -1.979423 0.991992