31
Extracted from mol_244.out
O -2.235867 3.302646 1.130958
B -0.889436 3.139159 0.938422
O 0.030021 4.140229 1.108350
C -0.372467 1.724857 0.498790
C 0.995990 1.500311 0.283255
C 1.452792 0.239625 -0.107875
O 2.832408 0.169549 -0.281553
C 3.550057 -0.916455 -0.664362
O 3.093324 -2.001405 -0.916641
C 5.015514 -0.555327 -0.725979
C 0.556770 -0.821700 -0.291823
C -0.817356 -0.616716 -0.080332
C -1.791217 -1.775117 -0.274761
C -2.819798 -1.485310 -1.381831
C -2.484830 -2.165392 1.042645
C -1.264096 0.652806 0.311689
H -2.518508 4.184023 1.401478
H -0.323575 4.995550 1.379081
H 1.722219 2.304500 0.417624
H 5.170487 0.269124 -1.439459
H 5.357715 -0.200927 0.258894
H 5.595530 -1.433896 -1.033306
H 0.928061 -1.796939 -0.597133
H -1.192029 -2.643026 -0.600644
H -2.324428 -1.240264 -2.334782
H -3.468921 -2.360840 -1.550202
H -3.470115 -0.635834 -1.114389
H -3.116223 -1.344670 1.421909
H -1.748659 -2.409575 1.824905
H -3.133299 -3.045568 0.897479
H -2.330066 0.826583 0.479593