16
Extracted from mol_1269.out
O 2.289923 -1.754599 -0.039582
B 1.974623 -0.432279 -0.154497
O 2.980969 0.457045 -0.358603
C 0.431120 -0.070688 -0.035505
C -0.148110 1.210375 -0.113778
Cl 0.838381 2.661419 -0.369285
C -1.524667 1.425369 0.003266
C -2.379129 0.341839 0.206049
C -1.828336 -0.935552 0.286718
F -2.640678 -1.983715 0.481352
C -0.459396 -1.145015 0.170049
H 3.241592 -1.901197 -0.122993
H 2.673873 1.373124 -0.428922
H -1.923078 2.439027 -0.064622
H -3.458552 0.476557 0.301315
H -0.068535 -2.161710 0.239038