27
Extracted from mol_1213.out
O 0.439600 -1.519891 1.861676
B -0.653224 -1.370379 1.026307
O -1.715765 -2.160433 1.309411
C -0.574538 -0.324914 -0.168674
C -1.728938 0.065517 -0.904558
S -3.400779 -0.540170 -0.541719
C -3.846072 0.470486 0.920713
C -1.661296 0.932935 -1.999058
C -0.425444 1.447634 -2.394138
C 0.731182 1.115175 -1.701733
C 0.671797 0.244229 -0.592422
N 1.844801 -0.080752 0.105124
C 3.151282 0.295013 -0.138495
O 3.518039 1.008732 -1.054567
C 4.131207 -0.276460 0.879447
H 0.271453 -2.198545 2.530381
H -2.467811 -2.003501 0.697924
H -3.190839 0.239310 1.772157
H -3.793739 1.540594 0.675493
H -4.882136 0.204790 1.177712
H -2.575867 1.197638 -2.532919
H -0.363919 2.123013 -3.251967
H 1.699275 1.512381 -1.996805
H 1.695582 -0.675279 0.919094
H 5.147439 0.018089 0.590600
H 4.064908 -1.375941 0.922182
H 3.913806 0.110728 1.888833