30
Extracted from mol_615.out
O -1.930134 2.543467 0.808280
B -1.978902 1.290618 1.345186
O -1.618960 0.977524 2.623276
C -2.480200 0.111435 0.412855
C -3.812775 -0.279055 0.285409
Br -5.156776 0.651650 1.294811
C -4.226259 -1.326311 -0.548213
C -3.256237 -2.004996 -1.282832
C -1.903682 -1.654250 -1.193246
C -1.525933 -0.602421 -0.347482
O -0.241428 -0.176880 -0.182891
C 0.817911 -0.837287 -0.866261
C 2.123623 -0.200441 -0.462322
C 2.737010 -0.550944 0.750436
C 3.931343 0.056407 1.145282
C 4.527945 1.024399 0.329632
C 3.923993 1.382127 -0.879385
C 2.727103 0.773824 -1.270086
H -1.611370 3.238123 1.397923
H -1.308661 1.716906 3.160812
H -5.280255 -1.598476 -0.616291
H -3.554777 -2.825411 -1.941216
H -1.167336 -2.201195 -1.781960
H 0.670984 -0.755913 -1.958759
H 0.816351 -1.911455 -0.603836
H 2.271234 -1.306322 1.390078
H 4.400706 -0.228244 2.090909
H 5.465074 1.497396 0.635683
H 4.385827 2.137514 -1.520869
H 2.254584 1.058211 -2.214921