17
Extracted from mol_762.out
O 2.895597 -1.436785 0.336006
B 2.361920 -0.195478 0.127941
O 3.257074 0.802918 -0.077604
C 0.783356 -0.000717 0.084072
C -0.021921 -1.092053 -0.304485
C -1.411271 -1.027548 -0.394872
C -2.067610 0.171884 -0.084505
O -3.411561 0.315712 -0.141786
C -1.312365 1.288702 0.301237
C 0.075046 1.184887 0.368249
Cl 0.935476 2.652337 0.851334
H 2.241708 -2.099750 0.581071
H 2.837454 1.668345 -0.168070
H 0.463039 -2.037122 -0.569205
H -1.987087 -1.903541 -0.709501
H -3.818173 -0.515303 -0.422440
H -1.820684 2.223514 0.539260