20
Extracted from mol_1366.out
O -3.621519 0.228271 0.224530
B -2.516939 -0.564374 0.076437
O -2.559131 -1.924749 -0.064001
C -1.108394 0.132280 0.064612
C 0.074427 -0.618421 -0.066984
C 1.350927 -0.026009 -0.072019
B 2.661361 -0.903541 -0.216217
O 3.849332 -0.532924 0.341997
O 2.666972 -2.078468 -0.907472
C 1.423586 1.374207 0.056478
C 0.256952 2.124844 0.177892
F 0.350625 3.460574 0.288557
C -1.000595 1.529305 0.186259
H -4.473503 -0.223677 0.226149
H -3.435762 -2.326507 -0.047191
H -0.016208 -1.705977 -0.151084
H 3.776883 0.249239 0.900296
H 1.829500 -2.255935 -1.350704
H 2.380469 1.905125 0.045649
H -1.888983 2.156731 0.286816