22
Extracted from mol_158.out
O -3.139117 -0.180556 0.807582
B -2.125790 -0.846487 0.187422
O -2.390543 -2.106169 -0.281092
C -0.697065 -0.184019 0.056187
C 0.419895 -1.035401 0.074152
C 1.729563 -0.550045 -0.020340
C 2.882712 -1.518051 0.036946
F 2.715675 -2.537985 -0.830221
F 4.055908 -0.931577 -0.255063
F 3.008866 -2.073249 1.258853
C 1.938137 0.823718 -0.148293
C 0.840512 1.686939 -0.173362
C -0.476490 1.215646 -0.065598
C -1.616974 2.205432 -0.090145
H -3.948275 -0.710463 0.834749
H -1.666399 -2.501913 -0.780204
H 0.275605 -2.115520 0.179262
H 2.952500 1.218118 -0.231822
H 1.013855 2.761425 -0.280453
H -1.256144 3.219275 -0.317624
H -2.140435 2.229655 0.878422
H -2.375996 1.931228 -0.839356