16
Extracted from mol_1273.out
O 2.696296 0.226698 -1.374935
B 2.047866 -0.206233 -0.257935
O 2.766802 -0.800325 0.735649
C 0.490936 -0.063134 -0.033441
C -0.114689 -0.535171 1.148300
C -1.486378 -0.426482 1.382086
C -2.293978 0.173108 0.409163
Br -4.168589 0.333863 0.703556
C -1.747351 0.658610 -0.780988
C -0.374093 0.524486 -0.962931
F 0.137422 1.003326 -2.127106
H 2.101448 0.634121 -2.018693
H 3.707655 -0.848269 0.518850
H 0.522195 -1.002171 1.903555
H -1.927429 -0.801340 2.306959
H -2.358113 1.128913 -1.552089