20
Extracted from mol_1326.out
O 2.274822 1.804703 -0.040033
B 2.133427 0.510661 -0.422606
O 3.150099 -0.078385 -1.121322
C 0.853511 -0.396107 -0.145947
C 0.864842 -1.696246 -0.693186
C -0.214454 -2.569602 -0.552494
C -1.351157 -2.166567 0.151232
C -1.371159 -0.893099 0.708907
F -2.465652 -0.513318 1.389149
C -0.299783 0.004303 0.573887
S -0.424493 1.586914 1.421752
C -1.774531 2.403668 0.492731
H 1.500826 2.120284 0.466584
H 3.883792 0.536895 -1.252831
H 1.749965 -2.013653 -1.247505
H -0.175931 -3.569195 -0.993214
H -2.217585 -2.817957 0.285740
H -1.894581 3.400513 0.941498
H -1.513663 2.508931 -0.569780
H -2.708298 1.837256 0.607440