21
Extracted from mol_807.out
O 0.891836 2.826299 -0.944372
B 0.258466 2.085667 0.011638
O -0.524224 2.722201 0.915175
C 0.463499 0.499103 -0.024574
C -0.580672 -0.451952 0.083950
C -1.997386 -0.032126 0.392531
O -2.282139 0.797082 1.254067
N -2.970328 -0.675916 -0.306130
C -0.336560 -1.833610 -0.029960
C 0.961985 -2.299651 -0.229521
C 2.015032 -1.392773 -0.314606
C 1.770531 -0.014111 -0.209573
O 2.797190 0.870180 -0.254188
H 0.673649 3.762589 -0.835964
H -1.118371 2.095979 1.382125
H -3.934838 -0.425093 -0.118767
H -2.756566 -1.263189 -1.100877
H -1.158284 -2.544502 0.078849
H 1.158237 -3.372564 -0.302653
H 3.041169 -1.748895 -0.455687
H 3.627773 0.395282 -0.387777