26
Extracted from mol_431.out
O -0.369279 -1.816728 -1.840694
B -1.361143 -0.885944 -1.716123
O -2.322124 -0.861961 -2.687981
C -1.528808 0.127033 -0.514146
C -2.815171 0.675396 -0.325340
C -3.131401 1.494959 0.757621
C -2.129168 1.775550 1.681844
F -2.405056 2.559218 2.734268
C -0.840127 1.272934 1.536140
C -0.525632 0.454845 0.437255
C 0.889435 -0.015172 0.317053
C 1.659113 0.282852 -0.824502
C 2.993720 -0.121890 -0.914119
C 3.586656 -0.832400 0.134631
C 2.836233 -1.133336 1.275608
C 1.502238 -0.725720 1.367293
H 0.303203 -1.771002 -1.148848
H -2.160955 -1.539022 -3.358901
H -3.592850 0.434321 -1.053537
H -4.130761 1.912221 0.898145
H -0.079491 1.546185 2.270283
H 1.207072 0.850738 -1.641457
H 3.574927 0.125621 -1.806390
H 4.630527 -1.148997 0.063377
H 3.290229 -1.690780 2.099338
H 0.918614 -0.968923 2.259185