24
Extracted from mol_946.out
O 2.311808 1.559478 -1.473786
B 2.303722 0.253539 -1.085718
O 3.275262 -0.565109 -1.596732
C 1.263544 -0.279250 -0.023378
C 1.735434 -1.048323 1.056472
C 0.867954 -1.561950 2.023660
C -0.501038 -1.342527 1.898337
C -1.025585 -0.609901 0.820905
C -2.541247 -0.516781 0.774947
O -3.215932 -0.822792 1.746290
N -3.094813 -0.113788 -0.400588
C -0.126802 -0.059597 -0.119603
O -0.605869 0.655431 -1.201800
C -0.739450 2.066929 -1.007457
H 3.015073 1.736175 -2.114550
H 3.182471 -1.486236 -1.325284
H 2.810426 -1.236959 1.149092
H 1.258366 -2.139605 2.865375
H -1.214567 -1.739364 2.623434
H -2.509855 0.077394 -1.206746
H -4.105574 -0.114527 -0.465180
H 0.238539 2.523262 -0.796591
H -1.449840 2.287555 -0.192015
H -1.132029 2.476944 -1.949085