17
Extracted from mol_773.out
O 3.157323 0.937344 -0.452644
B 2.391062 -0.059004 0.076703
O 3.073143 -1.092900 0.649234
C 0.811643 -0.021399 0.028827
C 0.042681 -1.198582 -0.030652
C -1.350043 -1.161667 -0.082878
C -2.037766 0.062274 -0.066621
O -3.383843 0.143999 -0.111510
C -1.282392 1.249780 -0.001193
Br -2.179995 2.927172 0.031862
C 0.110090 1.200144 0.040144
H 2.645482 1.590654 -0.942341
H 2.499601 -1.713840 1.111744
H 0.537539 -2.174897 -0.056315
H -1.925688 -2.091760 -0.140885
H -3.762150 -0.744828 -0.153294
H 0.653312 2.147507 0.099820