24
Extracted from mol_1651.out
O -4.043000 -0.732602 1.049772
B -3.374564 0.352723 0.576544
O -4.092528 1.484835 0.305235
C -1.799123 0.310622 0.409810
C -1.066073 1.422183 0.875129
C 0.325072 1.467030 0.803839
C 1.035311 0.393195 0.243170
C 2.527865 0.490854 0.184117
O 3.162680 1.436784 0.591215
O 3.091785 -0.593436 -0.374514
C 4.515968 -0.589072 -0.472323
C 0.331535 -0.714413 -0.237418
C -1.068965 -0.763914 -0.155593
C -1.747055 -1.970861 -0.719341
O -1.153193 -2.902530 -1.215436
H -4.993336 -0.568261 1.133444
H -3.569726 2.198916 -0.079030
H -1.594946 2.268391 1.325503
H 0.885666 2.326541 1.177867
H 4.975819 -0.516302 0.525327
H 4.863364 0.262109 -1.077868
H 4.791933 -1.536634 -0.951366
H 0.855590 -1.558646 -0.687389
H -2.860076 -1.967512 -0.661386