31
Extracted from mol_316.out
O 3.201926 -2.110821 -0.432384
B 2.711458 -1.176029 0.438269
O 3.385350 -0.729760 1.542400
C 1.201096 -0.733773 0.269522
C 0.199647 -1.501726 0.888988
C -1.152557 -1.170070 0.786069
C -1.572235 -0.045815 0.053398
C -3.044793 0.327016 -0.068790
C -3.850954 -0.755066 -0.808968
C -3.671965 0.654632 1.297628
C -0.583379 0.723270 -0.566517
C 0.778259 0.392957 -0.465730
C 1.738258 1.290701 -1.171203
O 1.440629 2.272792 -1.811132
O 3.023065 0.888127 -1.022497
C 4.015989 1.686917 -1.660296
H 4.112062 -2.388862 -0.271398
H 4.288568 -1.056652 1.636537
H 0.481258 -2.385339 1.469969
H -1.892057 -1.801219 1.287856
H -3.088137 1.245501 -0.679736
H -3.424331 -0.962729 -1.803060
H -3.864194 -1.703586 -0.246079
H -4.897734 -0.436691 -0.946565
H -3.675144 -0.225880 1.961942
H -4.718038 0.982538 1.178329
H -3.119581 1.457986 1.810461
H -0.852914 1.607851 -1.149065
H 3.849741 1.723507 -2.747839
H 3.999211 2.716589 -1.271265
H 4.981495 1.213638 -1.439547