24
Extracted from mol_1770.out
O -3.990491 0.793041 1.405937
B -3.461123 0.360424 0.223493
O -4.288342 0.121196 -0.813548
C -1.858390 0.249167 0.218543
C -1.220316 1.000195 1.230895
C 0.162957 1.035693 1.391971
C 0.988412 0.281462 0.547815
C 2.470653 0.338197 0.753287
O 3.008010 0.996138 1.612765
O 3.138339 -0.426367 -0.126501
C 4.562209 -0.439539 -0.004592
C 0.402197 -0.502017 -0.448520
C -0.986338 -0.495750 -0.608304
N -1.462112 -1.356810 -1.720936
O -2.481037 -1.038064 -2.331434
O -0.792339 -2.329103 -2.006264
H -4.952337 0.872845 1.347705
H -3.798766 -0.208541 -1.590573
H -1.851665 1.570774 1.913474
H 0.625400 1.639640 2.175505
H 4.973433 0.572789 -0.137235
H 4.929583 -1.108157 -0.792708
H 4.864329 -0.811740 0.986220
H 1.017733 -1.115470 -1.103337