24
Extracted from mol_1782.out
O 4.324065 -0.092613 0.220960
B 3.196667 0.458393 -0.321731
O 3.345978 1.411029 -1.284983
C 1.734284 0.050981 0.100973
C 1.454523 -0.727489 1.236296
C 0.147209 -1.066596 1.573047
C -0.947545 -0.678341 0.782967
C -2.293242 -1.140587 1.344618
O -2.398172 -1.350880 2.545810
N -3.299966 -1.353009 0.469092
C -0.692395 0.128578 -0.356558
C -1.748019 0.650302 -1.308018
O -2.618084 -0.048951 -1.818763
N -1.637414 1.969493 -1.614617
C 0.635883 0.477573 -0.661800
H 4.157980 -0.797448 0.857451
H 4.276167 1.576536 -1.490297
H 2.263876 -1.069587 1.891368
H -0.070790 -1.639197 2.476044
H -3.206989 -1.133479 -0.525360
H -4.184786 -1.656711 0.859195
H -2.295432 2.361520 -2.279197
H -0.974867 2.577975 -1.152936
H 0.831068 1.092512 -1.543558