20
Extracted from mol_1328.out
O -1.633945 2.417179 0.237981
B -2.131267 1.166368 0.023046
O -3.489810 1.010234 0.010870
C -1.107945 -0.014262 -0.193186
C 0.272704 0.239975 -0.076372
C 1.219901 -0.779808 -0.257752
S 2.978191 -0.562599 -0.131129
C 3.166250 1.202059 0.255627
C 0.778321 -2.081737 -0.563675
C -0.584519 -2.322456 -0.678512
F -0.998986 -3.565312 -0.972494
C -1.532692 -1.317205 -0.499954
H -2.337247 3.068014 0.365182
H -3.788013 0.103392 -0.122753
H 0.585733 1.256454 0.160113
H 2.767074 1.840353 -0.546532
H 4.249980 1.368329 0.337048
H 2.693162 1.462054 1.214229
H 1.480273 -2.905293 -0.713946
H -2.587167 -1.585737 -0.612460