19
Extracted from mol_1699.out
O -3.557598 0.940539 -0.509443
B -2.759425 0.073759 0.169746
O -3.381397 -0.771418 1.034514
C -1.183114 0.052902 -0.038082
C -0.604869 0.306980 -1.299472
C 0.775635 0.286589 -1.483744
C 1.635536 0.022716 -0.409041
C 3.110804 0.016658 -0.642982
O 3.610142 0.228681 -1.723122
C 1.078556 -0.229699 0.866805
C 1.913829 -0.503827 2.006130
N 2.561727 -0.733599 2.942131
C -0.317824 -0.217155 1.034279
H -3.074944 1.586846 -1.036744
H -2.802063 -1.436403 1.422987
H -1.250321 0.510925 -2.159878
H 1.226321 0.473810 -2.461344
H 3.739621 -0.198868 0.254621
H -0.720614 -0.409436 2.032637