20
Extracted from mol_919.out
O 2.666632 0.369608 1.319729
B 2.152945 -0.039081 0.131766
O 2.939351 0.037049 -0.983482
C 0.662204 -0.590397 0.098995
C 0.304075 -1.940673 0.070710
I 1.834491 -3.442112 0.031825
C -1.027186 -2.379024 0.071097
C -2.038446 -1.419955 0.096201
C -1.737817 -0.053531 0.114054
C -0.396339 0.351349 0.110915
O 0.002425 1.651907 0.104486
C -0.958470 2.681961 0.169164
H 3.579360 0.676847 1.227639
H 2.517961 -0.312881 -1.777074
H -1.268142 -3.442636 0.054353
H -3.084052 -1.740246 0.098987
H -2.547756 0.675736 0.128561
H -1.567064 2.616381 1.089095
H -0.401261 3.628487 0.177374
H -1.632912 2.671212 -0.706562