26
Extracted from mol_1737.out
O 4.489165 -0.024122 0.324845
B 3.319749 0.690488 0.327296
O 3.405576 2.047968 0.421890
C 1.893486 0.039111 0.228493
C 1.681577 -1.347420 0.126594
C 0.407191 -1.901567 0.042866
C -0.746019 -1.090646 0.056582
S -2.377712 -1.780603 -0.043192
C -2.049043 -3.571881 -0.131641
C -0.555255 0.320059 0.156651
C -1.723316 1.242115 0.174768
O -2.880701 0.888155 0.102887
O -1.371559 2.539308 0.280925
C -2.441606 3.480923 0.304904
C 0.744243 0.843509 0.239731
H 4.374173 -0.978418 0.256271
H 4.322391 2.348584 0.477529
H 2.531829 -2.040010 0.110433
H 0.317000 -2.983716 -0.033800
H -1.487547 -3.854864 -1.034969
H -3.048085 -4.028975 -0.183705
H -1.536850 -3.950163 0.765974
H -3.042216 3.417453 -0.615781
H -1.975192 4.470775 0.388016
H -3.106262 3.298602 1.163682
H 0.854983 1.925337 0.316388