32
Extracted from mol_632.out
O -2.891103 2.923662 -0.386459
B -1.915204 2.029723 -0.028163
O -0.633300 2.408170 0.263352
C -2.345794 0.516561 0.047909
C -3.715179 0.218429 -0.105925
C -4.220817 -1.080222 0.013400
C -3.350600 -2.125874 0.301567
C -1.975173 -1.883459 0.453682
C -1.076195 -3.024328 0.773050
O -1.457086 -4.171727 0.872390
C -1.476588 -0.568091 0.316827
O -0.133107 -0.382946 0.502670
C 0.670931 -0.205019 -0.662243
C 2.096891 0.084935 -0.262137
C 3.157683 -0.379146 -1.053348
C 4.481256 -0.073343 -0.721950
C 4.759225 0.691203 0.414874
C 3.706126 1.148932 1.214286
C 2.382734 0.851800 0.877746
H -2.624870 3.850009 -0.413410
H -0.453429 3.354536 0.204839
H -4.400439 1.043680 -0.313936
H -5.290844 -1.266460 -0.108856
H -3.699278 -3.155286 0.417951
H -0.005267 -2.757425 0.929441
H 0.626819 -1.116508 -1.288488
H 0.269230 0.631781 -1.261541
H 2.948166 -0.990550 -1.936739
H 5.297658 -0.443760 -1.347965
H 5.793934 0.923964 0.680957
H 3.917594 1.741439 2.108976
H 1.556026 1.205323 1.496092