18
Extracted from mol_1553.out
O -2.487483 -1.286669 1.281570
B -2.071081 -0.473324 0.267526
O -3.016697 0.005086 -0.560741
C -0.484945 -0.246244 0.079443
C 0.238079 0.916731 -0.258772
N -0.431477 2.199783 -0.567786
O -1.539996 2.169907 -1.093755
O 0.171047 3.225575 -0.315131
C 1.635105 0.952745 -0.327821
C 2.374871 -0.205102 -0.107421
C 1.692516 -1.383463 0.207391
Br 2.669505 -2.985487 0.506023
C 0.298774 -1.395664 0.312666
H -1.791760 -1.554732 1.891179
H -2.654694 0.691283 -1.144986
H 2.130308 1.895396 -0.561382
H 3.463433 -0.191221 -0.179471
H -0.195504 -2.334601 0.571468