25
Extracted from mol_268.out
O 2.092699 -1.075667 -1.901489
B 1.996877 -0.724390 -0.583272
O 2.671732 -1.357615 0.423470
C 1.101376 0.524038 -0.209100
C 1.711097 1.789082 -0.205771
C 0.986527 2.937728 0.113159
C -0.364923 2.824429 0.432896
C -0.975548 1.566092 0.430498
Cl -2.691596 1.553639 0.851422
C -0.272000 0.386257 0.113770
C -0.890164 -1.014593 0.097606
C -1.970691 -1.193386 -0.985296
C -1.357386 -1.491497 1.485638
H 2.671297 -1.824081 -2.096835
H 3.230900 -2.098118 0.155033
H 2.772328 1.878646 -0.456958
H 1.466993 3.919695 0.114242
H -0.960532 3.703193 0.686787
H -0.068065 -1.692852 -0.188467
H -2.294961 -2.246849 -1.024296
H -1.577832 -0.923234 -1.978415
H -2.856998 -0.573903 -0.788522
H -0.536047 -1.431161 2.217316
H -2.197768 -0.892867 1.864600
H -1.687313 -2.542582 1.431984