19
Extracted from mol_1919.out
O -3.630135 0.221738 -0.197347
B -2.535549 -0.580924 -0.059228
O -2.716740 -1.913454 0.125048
C -1.043734 -0.051943 -0.094316
C -0.698623 1.247047 -0.506201
C 0.625023 1.683821 -0.526978
C 1.671752 0.827263 -0.135351
C 3.006643 1.358668 -0.173466
N 4.012747 1.933402 -0.244729
C 1.325242 -0.477134 0.277398
N 2.368406 -1.444041 0.698755
O 3.529770 -1.140715 0.492252
O 1.992021 -2.480350 1.218465
C 0.001577 -0.906157 0.296877
H -3.448913 1.165621 -0.267582
H -3.649970 -2.165093 0.153236
H -1.472705 1.949284 -0.832486
H 0.871295 2.697490 -0.848301
H -0.208107 -1.924520 0.623954