24
Extracted from mol_965.out
O 3.735523 -1.815883 0.451676
B 3.406310 -0.531670 0.131353
O 4.428861 0.330686 -0.172023
C 1.890358 -0.122757 0.134765
C 1.434636 1.119966 -0.331548
C 0.081077 1.467382 -0.319425
C -0.871232 0.565408 0.180049
O -2.196315 0.833714 0.245680
C -2.674749 2.102766 -0.145721
C -0.448237 -0.708535 0.642507
S -1.586232 -1.871504 1.381233
C -2.726695 -2.238372 -0.000368
C 0.912644 -1.022559 0.608422
H 4.691459 -1.957145 0.436832
H 4.143951 1.235073 -0.344199
H 2.141052 1.855985 -0.733076
H -0.224085 2.445532 -0.692500
H -3.758656 2.094268 0.031834
H -2.488235 2.301114 -1.216710
H -2.219920 2.912877 0.451871
H -3.274647 -1.337407 -0.306795
H -3.436492 -2.985812 0.384268
H -2.183644 -2.665711 -0.856330
H 1.223269 -2.007417 0.964779