23
Extracted from mol_149.out
O -0.135052 2.859833 -0.570161
B -0.854844 1.919949 0.109630
O -1.971317 2.353534 0.765496
C -0.482993 0.373994 0.155996
C 0.863369 -0.078201 0.205848
S 2.177257 1.148095 0.312116
C 3.653257 0.268379 -0.285196
C 1.176788 -1.445042 0.220346
C 0.152833 -2.388457 0.162424
C -1.175655 -1.972652 0.104787
C -1.510730 -0.609399 0.109446
C -2.978050 -0.242095 0.043609
H 0.710560 2.522476 -0.907104
H -2.072144 3.311253 0.670819
H 3.465772 -0.216978 -1.254076
H 4.424012 1.042670 -0.410354
H 4.016317 -0.470885 0.443687
H 2.211383 -1.783055 0.283160
H 0.396616 -3.454608 0.165797
H -1.974265 -2.717896 0.054982
H -3.592384 -1.135100 -0.144202
H -3.184669 0.490346 -0.751885
H -3.316058 0.223838 0.981556