23
Extracted from mol_1140.out
O -1.442488 2.798922 -0.612985
B -0.761308 1.906952 0.156458
O 0.081940 2.385664 1.125497
C -1.132368 0.374707 0.029816
C -2.478750 0.013942 -0.170101
C -2.900831 -1.317266 -0.153444
C -1.970530 -2.340055 0.057855
C -0.636698 -1.995444 0.220005
F 0.288119 -2.965048 0.408210
C -0.194278 -0.663811 0.203997
N 1.198618 -0.440561 0.349933
C 1.948532 0.396045 -0.471111
O 1.447291 1.224905 -1.202097
C 3.449137 0.190087 -0.355226
H -1.166798 3.707328 -0.430073
H 0.517777 1.682574 1.621632
H -3.209972 0.810181 -0.328492
H -3.955196 -1.564966 -0.299053
H -2.255407 -3.394005 0.084001
H 1.702729 -1.220145 0.760734
H 3.957566 0.990251 -0.906647
H 3.774461 0.202825 0.697535
H 3.738454 -0.783082 -0.786443