29
Extracted from mol_1199.out
O 4.640369 -0.400680 0.344092
B 3.753649 -1.248325 -0.266482
O 4.252077 -2.370195 -0.860132
C 2.202711 -1.004701 -0.323903
C 1.353759 -1.909746 -0.998100
C -0.021533 -1.729618 -1.072227
C -0.632321 -0.612050 -0.461970
N -2.005267 -0.393490 -0.511557
C -2.993443 -1.152309 -1.118314
O -2.794104 -2.182437 -1.732536
C -4.384890 -0.561997 -0.943566
C 0.200058 0.322919 0.230136
C -0.374086 1.518423 0.894700
O -1.560289 1.815626 0.920888
O 0.547523 2.289992 1.495584
C 0.068228 3.460609 2.157917
C 1.588255 0.097584 0.277030
H 4.237672 0.381195 0.738269
H 5.212906 -2.428619 -0.773532
H 1.796014 -2.785709 -1.480168
H -0.654445 -2.440205 -1.598064
H -2.293053 0.457679 -0.020654
H -5.110519 -1.222787 -1.433067
H -4.442274 0.442843 -1.393515
H -4.639477 -0.462807 0.124417
H -0.643514 3.196146 2.954685
H 0.952311 3.951447 2.583644
H -0.437774 4.132727 1.448206
H 2.181456 0.838484 0.818217