36
Extracted from mol_642.out
O -0.965055 4.395579 -1.000654
B -0.582030 3.215125 -0.430919
O 0.625844 3.133626 0.189991
C -1.595405 2.001822 -0.508784
C -2.925467 2.232873 -0.900850
C -3.871943 1.206705 -0.913269
C -3.499841 -0.075141 -0.515444
C -2.175995 -0.363450 -0.132986
C -1.824467 -1.747545 0.309481
O -0.713546 -2.228529 0.357691
O -2.921587 -2.452007 0.657351
C -2.703511 -3.801533 1.065157
C -1.227079 0.688593 -0.143375
O 0.068709 0.476785 0.270345
C 0.994171 -0.022123 -0.727677
C 2.334143 -0.235525 -0.076031
C 2.564862 -1.387337 0.694592
C 3.799093 -1.581339 1.318480
C 4.814622 -0.627083 1.183218
C 4.589838 0.525321 0.424921
C 3.353022 0.720611 -0.198709
H -0.295265 5.081495 -0.876254
H 0.746989 2.241907 0.564041
H -3.212017 3.246353 -1.193318
H -4.902054 1.406402 -1.218782
H -4.233634 -0.881489 -0.494779
H -2.065080 -3.841241 1.961138
H -2.215253 -4.380481 0.265968
H -3.694647 -4.217046 1.286681
H 1.067089 0.716359 -1.545206
H 0.597784 -0.966068 -1.126500
H 1.762144 -2.120856 0.800405
H 3.971993 -2.482281 1.913661
H 5.781194 -0.782300 1.670558
H 5.377977 1.275723 0.318885
H 3.174399 1.628091 -0.783071