27
Extracted from mol_394.out
O 4.783344 -0.780450 0.242428
B 3.448025 -1.037344 0.349763
O 3.099149 -2.280496 0.839055
C 2.302241 -0.046629 -0.034290
C 2.605867 1.225801 -0.559519
C 1.612993 2.129678 -0.920129
C 0.273150 1.762114 -0.756787
C -0.101607 0.514031 -0.239916
C -1.545787 0.167542 -0.110046
C -2.441967 0.490427 -1.147460
C -3.807825 0.218866 -1.035010
C -4.310845 -0.383179 0.121623
C -3.433408 -0.713186 1.159809
C -2.067807 -0.445860 1.045455
C 0.932005 -0.393059 0.123429
O 0.559330 -1.592432 0.608763
H 4.996424 0.096102 -0.097780
H 3.859471 -2.838601 1.051201
H 3.653100 1.523015 -0.690270
H 1.870354 3.113929 -1.318198
H -0.513791 2.473195 -1.021234
H -2.057967 0.943886 -2.065040
H -4.480256 0.473435 -1.859046
H -5.379125 -0.598070 0.212353
H -3.815985 -1.183610 2.070027
H -1.394544 -0.711645 1.860879
H 1.355461 -2.127459 0.796923