24
Extracted from mol_1789.out
O 4.111590 -1.423381 0.019810
B 3.357659 -0.287046 0.160970
O 4.000126 0.871018 0.476733
C 1.796130 -0.252196 -0.024549
C 1.008725 -1.413918 -0.080402
C -0.372356 -1.358614 -0.260719
C -1.037356 -0.124571 -0.377586
S -2.798463 -0.047064 -0.682973
C -3.345757 -1.774986 -0.560646
C -0.271167 1.069578 -0.301420
C -0.792035 2.492292 -0.406545
O -0.107557 3.372662 -0.900321
N -2.022354 2.747236 0.122181
C 1.118659 0.971594 -0.146160
H 3.612567 -2.194055 -0.273347
H 4.957096 0.750775 0.540137
H 1.468397 -2.404082 0.021048
H -0.928494 -2.293782 -0.317290
H -4.436525 -1.734413 -0.693026
H -3.121102 -2.209065 0.424687
H -2.916717 -2.398379 -1.358780
H -2.591140 2.038323 0.568799
H -2.372211 3.695712 0.049866
H 1.682283 1.906362 -0.123234