29
Extracted from mol_1012.out
O -3.580738 -0.065967 -0.193105
B -2.786157 -1.030911 -0.692146
O -3.278297 -1.767982 -1.736375
C -1.353945 -1.411106 -0.090136
C -1.142611 -2.762418 0.243443
C 0.072717 -3.218362 0.758407
C 1.119981 -2.318679 0.943789
C 0.935139 -0.973641 0.621720
O 2.004898 -0.129921 0.924648
C 2.627085 0.643754 0.001078
O 2.246044 0.771000 -1.137471
C 3.832180 1.315522 0.603306
C -0.291093 -0.501793 0.114588
N -0.396637 0.879279 -0.219059
C -1.181849 1.796545 0.420322
O -1.988600 1.496353 1.293832
C -1.020921 3.228057 -0.052845
H -3.167121 0.427917 0.545666
H -2.641458 -2.407459 -2.074329
H -1.957714 -3.477437 0.096280
H 0.206631 -4.272845 1.012703
H 2.084483 -2.633390 1.347334
H 3.525690 1.923077 1.469134
H 4.316900 1.947260 -0.150423
H 4.538241 0.556584 0.974382
H 0.311046 1.208351 -0.874006
H -0.103375 3.400129 -0.634376
H -1.040081 3.891092 0.823632
H -1.890436 3.486992 -0.678842