32
Extracted from mol_419.out
O 5.033030 0.769685 -0.178139
B 4.388806 -0.370013 0.221270
O 5.144852 -1.423466 0.640520
C 2.821943 -0.524431 0.210206
C 2.218769 -1.794041 0.262142
C 0.832429 -1.930084 0.222814
C -0.018183 -0.812443 0.129137
C -1.495912 -0.996280 0.086707
C -2.286421 -0.390988 -0.908287
C -3.665086 -0.607523 -0.957232
C -4.284587 -1.429359 -0.009514
C -3.512197 -2.037664 0.983794
C -2.131559 -1.825234 1.028972
C 0.590950 0.459111 0.098974
O -0.260730 1.557188 0.129645
C -0.037775 2.701878 -0.578870
O 0.906934 2.880783 -1.300272
C -1.149974 3.684863 -0.315077
C 1.980026 0.598352 0.140068
H 4.450018 1.441715 -0.551541
H 6.090987 -1.234161 0.578632
H 2.849944 -2.683675 0.325831
H 0.382605 -2.926034 0.242456
H -1.811209 0.236438 -1.665547
H -4.259169 -0.136636 -1.745384
H -5.364413 -1.596166 -0.047319
H -3.986065 -2.679564 1.731469
H -1.536085 -2.294352 1.816476
H -2.119250 3.238085 -0.585673
H -0.976945 4.599668 -0.894484
H -1.193004 3.918756 0.760244
H 2.397276 1.605596 0.127981