28
Extracted from mol_477.out
O -4.037533 1.802886 -0.659452
B -3.024981 1.491110 0.194267
O -2.865483 2.269599 1.309318
C -2.033186 0.302711 -0.137359
C -2.419403 -0.958588 -0.654157
C -3.848521 -1.328983 -0.865018
O -4.207289 -2.403460 -1.297093
C -1.443232 -1.924216 -0.951345
C -0.092672 -1.661947 -0.752812
C 0.329035 -0.420528 -0.235585
C 1.771297 -0.128082 -0.022880
C 2.206279 0.622335 1.086811
C 3.561501 0.894840 1.284527
C 4.514098 0.425198 0.374870
C 4.098955 -0.320907 -0.732596
C 2.743898 -0.595803 -0.928094
C -0.660760 0.533207 0.068414
H -4.551396 2.563144 -0.351550
H -2.169796 1.960420 1.901768
H -4.593381 -0.545861 -0.592475
H -1.780503 -2.891253 -1.332182
H 0.646841 -2.435412 -0.973816
H 1.475973 0.974109 1.819567
H 3.875943 1.470980 2.158942
H 5.575026 0.639188 0.528646
H 4.834551 -0.686033 -1.454333
H 2.431751 -1.160092 -1.810180
H -0.337012 1.511435 0.437210