20
Extracted from mol_1518.out
O -3.510292 0.591530 0.111248
B -2.179188 0.873570 0.057217
O -1.692437 2.157125 0.006819
C -1.094006 -0.275600 0.053292
C 0.254116 0.153260 0.012659
C 1.335108 -0.734752 0.005157
S 3.046533 -0.255589 -0.045216
C 2.982497 1.558808 -0.088186
C 1.066561 -2.115265 0.039415
C -0.246203 -2.572329 0.079222
C -1.316027 -1.666326 0.086137
Br -3.060684 -2.458168 0.140553
H -4.099840 1.355285 0.110360
H -2.358995 2.853464 0.011385
H 0.428064 1.228181 -0.013451
H 2.463431 1.927506 -0.985595
H 4.030930 1.888034 -0.123004
H 2.509395 1.972504 0.815057
H 1.888819 -2.836535 0.034455
H -0.447785 -3.644702 0.105026