20
Extracted from mol_1523.out
O 0.962929 2.450543 0.858933
B -0.123942 2.002287 0.179780
O -0.906489 2.904301 -0.482573
C -0.572315 0.477927 0.099562
C 0.175987 -0.631997 0.561460
S 1.807415 -0.465843 1.323794
C 2.875292 -0.287269 -0.156097
C -0.343501 -1.932059 0.477104
C -1.605306 -2.166011 -0.072696
C -2.343704 -1.078695 -0.544663
Br -4.067734 -1.374936 -1.307605
C -1.838384 0.219587 -0.462968
H 1.429388 1.722254 1.316803
H -0.579445 3.806762 -0.368644
H 3.908014 -0.212047 0.215280
H 2.785393 -1.169041 -0.806116
H 2.622288 0.626593 -0.712002
H 0.250238 -2.770762 0.848253
H -2.005867 -3.179591 -0.134335
H -2.430256 1.057996 -0.833270