22
Extracted from mol_1584.out
O -2.513817 -2.239514 -0.285221
B -2.824884 -0.931707 -0.072140
O -4.140644 -0.599461 0.094980
C -1.639793 0.110542 -0.027347
C -0.308175 -0.341479 -0.011596
C 0.760223 0.563258 0.034469
C 2.191245 0.122549 0.056465
O 3.135732 0.877062 0.095499
O 2.317535 -1.216208 0.027754
C 3.650625 -1.726035 0.043595
C 0.513834 1.946188 0.059948
C -0.802753 2.402090 0.037846
I -1.195196 4.494741 0.067369
C -1.869602 1.498554 -0.004842
H -3.297655 -2.805394 -0.282673
H -4.304213 0.329595 0.292645
H -0.104004 -1.412254 -0.035415
H 4.179169 -1.410298 0.956260
H 4.217745 -1.364611 -0.828018
H 3.560301 -2.819068 0.013666
H 1.364188 2.628896 0.094686
H -2.889866 1.892555 -0.030435