18
Extracted from mol_1395.out
O 3.358136 0.039859 0.677305
B 2.485423 -0.414040 -0.254143
O 2.973219 -1.019561 -1.378760
C 0.932716 -0.154755 -0.059165
C 0.250699 0.690921 -0.961130
C -1.107573 0.967666 -0.828681
C -1.833938 0.384746 0.221902
C -3.286011 0.664765 0.379516
O -3.928483 1.381609 -0.351618
C -1.188919 -0.471815 1.124112
C 0.174897 -0.731015 0.974723
Cl 0.936588 -1.838212 2.103904
H 4.276608 -0.159021 0.446778
H 2.288719 -1.331720 -1.982486
H 0.810574 1.150578 -1.781841
H -1.629863 1.630049 -1.522632
H -3.766302 0.149018 1.252355
H -1.746490 -0.939072 1.939860