25
Extracted from mol_58.out
O -1.533147 2.054519 2.259814
B -2.160225 1.136022 1.455602
O -3.521548 0.977816 1.442359
C -1.247130 0.251633 0.528609
C 0.138343 0.488768 0.599381
C 1.049137 -0.230053 -0.173305
O 2.392112 0.067430 0.043226
C 3.333139 0.046119 -0.940560
O 3.118986 -0.252508 -2.085095
C 4.671104 0.454296 -0.373625
C 0.596941 -1.220858 -1.046853
C -0.776948 -1.462199 -1.124959
C -1.717220 -0.752177 -0.362248
C -3.182364 -1.088167 -0.524041
H -2.111762 2.586383 2.818034
H -4.010029 1.558943 2.037726
H 0.524665 1.251608 1.277817
H 5.431500 0.412460 -1.162801
H 4.609000 1.474113 0.037554
H 4.947786 -0.213707 0.456923
H 1.294647 -1.785521 -1.662472
H -1.129442 -2.237293 -1.811766
H -3.764497 -0.215675 -0.859366
H -3.317842 -1.896665 -1.258099
H -3.635200 -1.405286 0.428148