17
Extracted from mol_1620.out
O 2.353715 1.495686 0.861241
B 2.146183 0.461065 -0.002635
O 3.216280 -0.027219 -0.678444
C 0.633562 -0.036126 -0.116972
C -0.304746 0.737430 0.599014
C -1.677761 0.449056 0.603067
C -2.588826 1.273190 1.349308
N -3.327487 1.937629 1.950308
C -2.154602 -0.653087 -0.127994
C -1.257837 -1.440767 -0.843970
C 0.108140 -1.129676 -0.833427
I 1.328956 -2.467114 -1.991672
H 3.282525 1.762161 0.883843
H 3.026638 -0.765543 -1.277264
H 0.062314 1.591478 1.169987
H -3.220450 -0.890687 -0.134151
H -1.626604 -2.297476 -1.410240