32
Extracted from mol_640.out
O 5.268859 2.236727 0.525780
B 4.905957 0.940075 0.316780
O 5.907845 0.044742 0.039662
C 3.367226 0.590486 0.347752
C 2.484006 1.516181 -0.234571
C 1.107991 1.287861 -0.329957
C 0.559781 0.097885 0.181859
O -0.753670 -0.226277 0.142183
C -1.686775 0.675432 -0.450945
C -3.063132 0.066801 -0.368353
C -3.533390 -0.772413 -1.389247
C -4.795479 -1.365293 -1.298256
C -5.601700 -1.126096 -0.180700
C -5.141162 -0.292757 0.843730
C -3.878406 0.298290 0.749313
C 1.411878 -0.832675 0.792439
C 2.787570 -0.595338 0.876850
C 3.607259 -1.607754 1.602030
O 3.180499 -2.649201 2.048102
H 6.223190 2.360779 0.426157
H 5.599026 -0.837389 -0.195705
H 2.885703 2.451615 -0.632808
H 0.475952 2.042486 -0.799477
H -1.409001 0.860394 -1.504756
H -1.660533 1.643738 0.081572
H -2.903720 -0.962895 -2.263418
H -5.151309 -2.015487 -2.101918
H -6.590158 -1.587844 -0.109103
H -5.767933 -0.102270 1.719008
H -3.519476 0.947740 1.553218
H 0.997113 -1.747417 1.220084
H 4.685993 -1.340126 1.734467