19
Extracted from mol_1531.out
O 3.416687 -1.011731 -0.606977
B 2.754496 -0.081188 0.131608
O 3.484836 0.780584 0.899925
C 1.176888 -0.057388 0.041619
C 0.510633 -0.785254 -0.959106
C -0.879975 -0.766753 -1.054469
C -1.659511 -0.028477 -0.152129
C -3.169984 -0.045848 -0.297363
F -3.552089 -0.803085 -1.341400
F -3.770280 -0.548889 0.793098
F -3.667050 1.184377 -0.502147
C -1.002729 0.697111 0.858430
Br -1.947704 1.732624 2.153868
C 0.391623 0.678066 0.945099
H 4.376078 -0.945376 -0.506484
H 2.970782 1.458436 1.353204
H 1.093903 -1.372896 -1.671391
H -1.382494 -1.333633 -1.839197
H 0.855889 1.249318 1.753809