22
Extracted from mol_1586.out
O -2.407146 -2.727681 0.200258
B -1.190446 -2.174537 -0.109735
O -0.206400 -2.993523 -0.527725
C -1.121031 -0.578687 0.060886
C -2.358734 0.011196 0.391699
C -2.531993 1.382454 0.583186
C -1.428193 2.225432 0.449586
I -1.645518 4.321813 0.731748
C -0.180074 1.697757 0.131917
C -0.013762 0.311023 -0.067125
C 1.373083 -0.141999 -0.415961
O 1.708851 -1.267325 -0.747411
O 2.279204 0.840039 -0.342611
C 3.628116 0.502849 -0.675642
H -2.383355 -3.684728 0.068102
H 0.624148 -2.499118 -0.706718
H -3.223893 -0.644269 0.503418
H -3.516563 1.782261 0.834447
H 0.682960 2.352454 0.030966
H 4.009292 -0.281211 -0.004442
H 4.207591 1.426229 -0.555047
H 3.693864 0.139571 -1.712236