29
Extracted from mol_1196.out
O -1.120648 4.258339 0.168499
B 0.010417 3.602374 -0.211690
O 1.027386 4.381607 -0.676569
C 0.138937 2.023192 -0.119227
C 1.390923 1.402933 0.009445
C 1.496492 0.007776 0.094603
C 2.859757 -0.589902 0.233857
O 3.885335 0.049780 0.271640
O 2.831290 -1.935951 0.312750
C 4.095500 -2.585192 0.447137
C 0.342743 -0.782482 0.049070
C -0.922433 -0.186253 -0.079903
N -2.043126 -1.037276 -0.123114
C -3.385354 -0.708980 -0.166324
O -3.801966 0.433560 -0.191441
C -4.309859 -1.918255 -0.168055
C -1.012400 1.215516 -0.162049
H -1.790660 3.680651 0.551864
H 1.777039 3.874188 -1.007408
H 2.315791 1.983489 0.062735
H 4.744173 -2.360888 -0.413578
H 4.609332 -2.255013 1.363023
H 3.884465 -3.660970 0.495318
H 0.439031 -1.868463 0.116215
H -1.826079 -2.027033 -0.092965
H -4.243949 -2.458966 0.791018
H -4.049625 -2.624182 -0.973731
H -5.339535 -1.568370 -0.309554
H -2.002982 1.654766 -0.271563