27
Extracted from mol_521.out
O -1.330838 -2.586682 1.936411
B -0.847946 -2.057275 0.770439
O -0.041182 -2.728444 -0.100537
C -1.339982 -0.608864 0.376658
C -2.721093 -0.349312 0.464182
C -3.278942 0.848469 0.023307
C -2.438108 1.838368 -0.514909
C -2.986388 3.084062 -0.978102
N -3.430185 4.089819 -1.353050
C -1.052778 1.612289 -0.582893
C -0.491622 0.405127 -0.138747
C 0.991125 0.250188 -0.176478
C 1.695521 -0.184019 0.961453
C 3.087005 -0.302262 0.941633
C 3.802852 0.009734 -0.218646
C 3.115966 0.445285 -1.356018
C 1.724350 0.567961 -1.333630
H -1.078738 -3.500801 2.117983
H 0.242369 -3.609906 0.171518
H -3.378866 -1.118090 0.878201
H -4.354488 1.024315 0.090581
H -0.403706 2.402881 -0.964762
H 1.146134 -0.403012 1.881530
H 3.616393 -0.629811 1.840708
H 4.892135 -0.081915 -0.234859
H 3.666122 0.687822 -2.269263
H 1.194888 0.894075 -2.232714