33
Extracted from mol_423.out
O -1.251523 1.529304 -1.829435
B -0.272999 1.265654 -0.891235
O 0.707441 2.205914 -0.796154
C -0.389092 -0.024429 0.014568
C -1.658998 -0.602005 0.332714
N -2.807680 -0.100721 -0.303236
C -4.133299 -0.416399 -0.096862
O -4.544623 -1.218568 0.722834
C -5.092567 0.326460 -1.018936
C -1.759470 -1.644132 1.275430
C -0.612475 -2.134286 1.890986
C 0.643664 -1.616693 1.575464
C 0.762764 -0.577634 0.640710
C 2.150168 -0.118760 0.313078
C 2.657194 -0.216089 -0.997734
C 3.968365 0.165395 -1.289961
C 4.801610 0.656765 -0.278861
C 4.314599 0.759011 1.027389
C 3.002878 0.370924 1.321479
H -1.081965 2.364904 -2.287239
H 1.417286 1.981311 -0.179570
H -2.616227 0.578887 -1.035717
H -5.523859 -0.393277 -1.733540
H -5.923211 0.717773 -0.413562
H -4.628016 1.149973 -1.581144
H -2.742863 -2.045030 1.508304
H -0.701046 -2.946122 2.618439
H 1.543549 -2.033372 2.033901
H 2.015485 -0.611006 -1.789668
H 4.343814 0.074075 -2.312748
H 5.827432 0.956644 -0.508730
H 4.957439 1.142797 1.824228
H 2.626223 0.452731 2.344638