26
Extracted from mol_945.out
O -4.651042 -0.917634 -0.029216
B -3.396559 -1.395178 -0.311717
O -3.293891 -2.667843 -0.787371
C -2.081065 -0.558484 -0.120464
C -2.054015 0.693597 0.516666
C -0.876117 1.421915 0.672142
C 0.347176 0.916986 0.191179
O 1.503751 1.597198 0.304128
C 1.526758 2.861951 0.929006
C 0.359804 -0.353774 -0.450104
C 1.565133 -1.045756 -1.014098
O 1.493812 -2.044951 -1.696295
O 2.739567 -0.485504 -0.681895
C 3.903135 -1.131501 -1.192098
C -0.850795 -1.047001 -0.590419
H -4.669541 0.001937 0.258142
H -4.158234 -3.088919 -0.885154
H -2.974749 1.132359 0.919487
H -0.910936 2.390106 1.170778
H 0.895007 3.596254 0.397448
H 1.201002 2.806759 1.983223
H 2.571017 3.200922 0.896910
H 4.758549 -0.544408 -0.833706
H 3.971476 -2.168324 -0.827195
H 3.890803 -1.155769 -2.292953
H -0.810047 -2.014938 -1.093512