17
Extracted from mol_1446.out
O 2.970059 0.924457 -0.236851
B 2.285773 -0.168889 0.201291
O 3.018001 -1.127637 0.816075
C 0.696716 -0.239469 0.034113
C -0.026936 0.965173 0.088529
C -1.426810 1.012176 -0.030501
C -2.116701 2.270439 0.038113
N -2.672391 3.288191 0.099731
C -2.143001 -0.183544 -0.218461
C -1.458872 -1.394488 -0.272463
C -0.066370 -1.410830 -0.138147
Cl 0.714084 -2.987102 -0.203194
H 2.442591 1.546666 -0.749021
H 2.504883 -1.908418 1.059264
H 0.508418 1.905579 0.244719
H -3.230043 -0.160724 -0.317848
H -1.999398 -2.331579 -0.415352