31
Extracted from mol_240.out
O -1.135935 -2.653263 -1.005397
B -1.365910 -1.762033 0.009542
O -2.342141 -2.081501 0.908099
C -0.463153 -0.475189 0.183857
C 0.917998 -0.734363 0.057826
C 1.864861 0.282844 0.178838
O 3.236607 0.061064 0.115522
C 3.800493 -0.751455 -0.824688
O 3.180577 -1.353332 -1.660284
C 5.298479 -0.770020 -0.651780
C 1.451506 1.589040 0.430732
C 0.087772 1.856932 0.549949
C -0.892145 0.855961 0.431231
C -2.353536 1.286220 0.573250
C -2.923561 0.955858 1.966863
C -3.269039 0.777815 -0.552913
H -0.453450 -2.363998 -1.624453
H -2.772389 -2.917989 0.680462
H 1.262687 -1.750148 -0.137416
H 5.701872 0.248584 -0.763436
H 5.554506 -1.110362 0.363715
H 5.745980 -1.436432 -1.398888
H 2.197940 2.380771 0.525979
H -0.229143 2.887770 0.734414
H -2.342549 2.387290 0.489757
H -3.940694 1.369800 2.073643
H -2.974786 -0.130886 2.124928
H -2.297722 1.391201 2.762556
H -3.435994 -0.307300 -0.486681
H -2.851073 1.006918 -1.546531
H -4.258057 1.260202 -0.484735