21
Extracted from mol_811.out
O 2.540865 -0.071943 -1.777182
B 1.184263 0.141162 -1.746113
O 0.559892 0.480232 -2.911449
C 0.262618 -0.334146 -0.532561
C -0.156212 0.578867 0.458496
C 0.327902 1.979553 0.276525
O 1.183537 2.228063 -0.570729
N -0.187017 2.956515 1.075768
C -0.952671 0.142501 1.530827
C -1.355858 -1.185599 1.626372
C -0.958628 -2.099138 0.636572
O -1.376110 -3.381732 0.760056
C -0.151133 -1.667030 -0.427816
H 2.925141 -0.216121 -0.905533
H 1.205258 0.728234 -3.587542
H 0.095220 3.909160 0.876014
H -1.032117 2.814451 1.611576
H -1.251724 0.834411 2.323502
H -1.970685 -1.539183 2.456496
H -1.043204 -3.902726 0.016520
H 0.150662 -2.395530 -1.189796