23
Extracted from mol_1157.out
O 4.259577 0.916318 -0.256277
B 2.911536 1.090670 -0.199383
O 2.425369 2.364045 -0.211016
C 1.832110 -0.074179 -0.120282
C 2.090196 -1.455986 -0.088681
Cl 3.740781 -2.107731 -0.134583
C 1.065140 -2.401757 -0.018839
C -0.258924 -1.976921 0.020978
C -0.570547 -0.605573 -0.008325
N -1.930276 -0.245303 0.034920
C -2.505514 1.013079 0.022144
O -1.872149 2.047587 -0.038736
C -4.026607 0.985830 0.102878
C 0.479457 0.324743 -0.078446
H 4.524983 -0.015028 -0.242421
H 3.137010 3.015714 -0.260875
H 1.305153 -3.466099 0.004145
H -1.059120 -2.721869 0.075568
H -2.574271 -1.026231 0.085844
H -4.462111 0.360041 -0.693548
H -4.397045 2.012985 0.000720
H -4.358513 0.579492 1.073063
H 0.243762 1.386174 -0.101285