22
Extracted from mol_1667.out
O -2.431880 2.033740 -0.593949
B -1.260073 1.964265 0.066499
O -0.826026 3.056779 0.771426
C -0.254082 0.719417 0.068527
C -0.538501 -0.639201 -0.232746
C -1.928400 -1.114952 -0.584666
O -2.720887 -0.463174 -1.263168
N -2.263306 -2.352082 -0.133721
C 0.492540 -1.603844 -0.228192
C 1.803215 -1.258396 0.076663
C 2.102063 0.071844 0.404671
C 3.495084 0.462265 0.749934
O 4.432132 -0.302023 0.775759
C 1.080217 1.027811 0.400254
H -2.649687 1.184800 -1.045236
H -1.458922 3.783693 0.695023
H -3.194535 -2.692757 -0.347051
H -1.698679 -2.854655 0.537550
H 0.264689 -2.637321 -0.499997
H 2.608548 -1.996685 0.066057
H 3.626468 1.548689 0.993720
H 1.320021 2.061787 0.662992