17
Extracted from mol_1444.out
O 2.599355 1.813490 -0.040850
B 2.177789 0.523462 -0.056211
O 3.115927 -0.464970 -0.106796
C 0.662949 0.033399 -0.019760
C 0.445451 -1.361461 -0.041278
C -0.830854 -1.924142 -0.013089
C -1.949247 -1.096656 0.038234
C -1.788877 0.300903 0.061246
C -2.953779 1.138670 0.113613
N -3.925593 1.772770 0.151544
C -0.484692 0.842973 0.032015
Cl -0.367530 2.601364 0.063749
H 1.876952 2.456694 -0.004266
H 4.012762 -0.104805 -0.126468
H 1.323067 -2.009805 -0.081599
H -0.955091 -3.009336 -0.031221
H -2.958590 -1.512553 0.061138