21
Extracted from mol_854.out
O 3.720956 0.173555 -0.271981
B 2.471390 0.714821 -0.242902
O 2.394845 2.093712 -0.261920
C 1.131246 -0.088931 -0.189035
C 1.135802 -1.497530 -0.195827
C -0.039515 -2.241466 -0.152807
C -1.260652 -1.562254 -0.095811
C -1.354998 -0.162392 -0.078997
B -2.771511 0.567273 -0.016173
O -2.898134 1.912305 -0.116527
O -3.933644 -0.138395 0.138550
C -0.133039 0.557417 -0.134952
O -0.215336 1.911952 -0.134771
H 3.747116 -0.789943 -0.249913
H 3.255722 2.532896 -0.290806
H 2.090106 -2.035540 -0.240330
H -0.009751 -3.333335 -0.165274
H -2.177430 -2.162284 -0.070251
H -2.025871 2.330407 -0.192579
H -3.808888 -1.085951 0.249130
H 0.681582 2.303683 -0.181303