22
Extracted from mol_1670.out
O -3.850807 0.727635 -0.009084
B -2.959766 -0.310899 0.099164
O -3.447299 -1.548793 0.298940
C -1.414436 0.123349 -0.020659
C -1.230997 1.509051 -0.156986
C 0.038590 2.075039 -0.272551
C 1.176639 1.274339 -0.254140
C 1.058313 -0.117133 -0.122626
S 2.517697 -1.150958 -0.077388
C 3.892073 0.007609 -0.339716
C -0.245328 -0.705278 -0.007087
C -0.284153 -2.176733 0.107357
O -1.252575 -2.901110 0.281811
H -4.755865 0.400134 0.077475
H -2.727368 -2.220891 0.346555
H -2.112352 2.150684 -0.172982
H 0.147517 3.158472 -0.376882
H 2.154179 1.746183 -0.340308
H 3.818082 0.523848 -1.308198
H 4.788839 -0.628631 -0.344664
H 3.981907 0.737289 0.478474
H 0.707110 -2.673204 0.017827