24
Extracted from mol_1233.out
O -1.262624 -1.945038 0.899870
B -1.837940 -0.913848 0.182690
O -3.070874 -1.004099 -0.375163
C -1.014665 0.414264 -0.031303
C -1.696428 1.647138 -0.228072
C -3.130572 1.761733 -0.121907
N -4.272693 1.950677 -0.030500
C -1.004753 2.841215 -0.491454
C 0.386146 2.820378 -0.572875
C 1.095026 1.640168 -0.369554
C 0.409339 0.441871 -0.081637
N 1.113938 -0.749887 0.157490
C 2.466682 -1.002770 0.053518
O 3.302997 -0.189036 -0.293532
C 2.857070 -2.432275 0.405461
H -1.792008 -2.748745 0.978569
H -3.601045 -1.784677 -0.175506
H -1.562765 3.769122 -0.628025
H 0.932346 3.742246 -0.788931
H 2.180620 1.617318 -0.427286
H 0.536885 -1.518071 0.487815
H 3.658672 -2.399000 1.158596
H 2.027748 -3.047786 0.784238
H 3.278900 -2.910898 -0.492504