18
Extracted from mol_1461.out
O -2.430212 0.299361 1.384410
B -1.838799 0.509735 0.172255
O -2.430631 1.083753 -0.915609
C -0.258688 0.320420 0.107767
C 0.318130 -0.887518 -0.301391
N -0.587536 -1.985472 -0.673976
O -1.793271 -1.760322 -0.599297
O -0.108184 -3.045464 -1.032072
C 1.696486 -1.101879 -0.373228
C 2.554250 -0.063977 -0.020758
C 2.007352 1.158431 0.393246
Cl 3.075882 2.462722 0.836379
C 0.622496 1.352181 0.457912
H -3.388256 0.412582 1.406931
H -3.388635 1.187243 -0.863904
H 2.074099 -2.070355 -0.701575
H 3.636966 -0.191709 -0.062934
H 0.238550 2.320266 0.785843