22
Extracted from mol_1404.out
O -4.208599 0.257508 0.192801
B -3.035134 0.805458 -0.241669
O -3.088462 2.015522 -0.856258
C -1.725906 -0.059608 0.029612
C -1.932620 -1.315159 0.638658
C -0.884792 -2.192939 0.910244
C 0.416423 -1.821063 0.589424
C 0.693724 -0.568545 0.015198
C 2.153480 -0.308343 -0.241435
O 2.947886 -1.193998 -0.459522
O 2.503875 0.979549 -0.134191
C 3.883907 1.280423 -0.347003
C -0.391575 0.286134 -0.272763
Cl -0.070626 1.817426 -1.104381
H -4.958458 0.834418 -0.004584
H -2.217175 2.333773 -1.135079
H -2.957663 -1.596054 0.888298
H -1.081580 -3.165071 1.368683
H 1.259400 -2.489001 0.776673
H 4.514231 0.764477 0.393466
H 3.977222 2.368047 -0.237668
H 4.202445 0.967043 -1.352977