25
Extracted from mol_1182.out
O -1.720149 2.901332 -0.834719
B -0.669831 2.052509 -0.655451
O 0.572601 2.546362 -0.985032
C -0.807260 0.583136 -0.107223
C -2.084770 0.121705 0.229714
C -2.327936 -1.166156 0.726339
C -3.703343 -1.587020 1.062060
O -4.688484 -0.890167 0.940267
C -1.235972 -2.031616 0.891859
C 0.054881 -1.627029 0.573258
C 0.287982 -0.325705 0.074544
N 1.573080 0.108809 -0.251380
C 2.779866 -0.568019 -0.170707
O 2.904163 -1.714719 0.213779
C 3.967066 0.277528 -0.609025
H -2.584972 2.543650 -0.602041
H 0.530132 3.456843 -1.309114
H -2.967580 0.760139 0.118078
H -3.786356 -2.635421 1.453419
H -1.401058 -3.042771 1.278300
H 0.901893 -2.296419 0.700403
H 1.615127 1.067594 -0.595006
H 3.818687 0.677611 -1.625328
H 4.103671 1.134527 0.071342
H 4.868562 -0.346697 -0.588332