23
Extracted from mol_1111.out
O 0.370951 2.113148 1.359615
B -0.443190 1.862596 0.307336
O -0.916222 2.937494 -0.375205
C -0.834530 0.365558 -0.106187
C -2.187044 -0.060703 -0.170444
C -3.252299 0.874999 0.086177
N -4.128015 1.616813 0.264394
C -2.536326 -1.383331 -0.501553
C -1.537261 -2.309803 -0.792432
C -0.198170 -1.918039 -0.758103
C 0.129950 -0.604899 -0.416005
O 1.483882 -0.261985 -0.491375
C 2.232820 -0.181113 0.642842
O 1.764939 -0.312304 1.746938
C 3.665910 0.135741 0.322439
H 0.658728 1.315464 1.831872
H -1.527545 2.725134 -1.089345
H -3.589210 -1.670080 -0.532159
H -1.800275 -3.337172 -1.054571
H 0.603166 -2.618680 -1.001909
H 3.740415 1.215372 0.109864
H 4.003824 -0.405952 -0.571823
H 4.295502 -0.098258 1.189636