32
Extracted from mol_637.out
O 3.704429 1.477759 2.755571
B 4.132076 0.665635 1.747231
O 5.371003 0.121136 1.898307
C 3.235045 0.366079 0.474473
C 3.812968 0.179533 -0.796594
C 3.012337 -0.080397 -1.905672
C 1.618420 -0.175349 -1.787296
C 0.805880 -0.461256 -2.998776
O 1.284359 -0.617536 -4.102481
C 1.020396 0.003170 -0.513649
O -0.326490 -0.108745 -0.455737
C -1.009510 0.058830 0.788126
C -2.487643 -0.115545 0.553953
C -3.108258 -1.350529 0.790284
C -4.474464 -1.518562 0.546247
C -5.233656 -0.451118 0.057708
C -4.622997 0.784214 -0.184559
C -3.258257 0.949555 0.062619
C 1.835513 0.277750 0.597319
H 2.873890 1.923192 2.554011
H 5.592672 -0.512253 1.206080
H 4.897237 0.257479 -0.922846
H 3.439165 -0.218113 -2.902481
H -0.294212 -0.525449 -2.833879
H -0.796734 1.065954 1.190624
H -0.642360 -0.684799 1.517590
H -2.516174 -2.188558 1.169903
H -4.946926 -2.485638 0.737550
H -6.302424 -0.580612 -0.132652
H -5.213230 1.621968 -0.565202
H -2.783754 1.916806 -0.127636
H 1.381700 0.405397 1.581859