21
Extracted from mol_977.out
O 3.486434 0.270333 -0.704753
B 2.395056 -0.487930 -0.396140
O 2.533673 -1.831946 -0.246491
C 1.013781 0.269604 -0.230889
C 0.965201 1.662051 -0.404364
C -0.216443 2.392406 -0.273915
C -1.403351 1.713341 0.042525
C -2.638296 2.435740 0.184886
N -3.637418 3.015710 0.304458
C -1.398082 0.316761 0.224732
C -0.199076 -0.390492 0.088076
O -0.130878 -1.747721 0.253007
C -1.294969 -2.486678 0.578150
H 4.284265 -0.269150 -0.786446
H 1.677488 -2.235687 -0.029725
H 1.894566 2.180796 -0.650355
H -0.227719 3.474687 -0.413692
H -2.333264 -0.184284 0.469223
H -1.722875 -2.163084 1.542609
H -0.984400 -3.536870 0.657901
H -2.063693 -2.397586 -0.208797