29
Extracted from mol_331.out
O 0.288492 2.263001 1.877118
B 0.606851 0.984166 1.503453
O 0.929303 0.097066 2.490501
C 0.533349 0.467240 0.004358
C 1.719854 0.408341 -0.755892
S 3.269330 0.974608 -0.027257
C 3.850168 -0.557547 0.793226
C 1.709042 -0.031593 -2.086127
C 0.503951 -0.432990 -2.664263
C -0.678537 -0.386612 -1.921424
C -0.686482 0.061976 -0.590720
C -1.975893 0.073362 0.231949
C -2.165204 -1.266669 0.970326
C -3.229888 0.438230 -0.576735
H 0.098018 2.841054 1.128968
H 0.949664 0.524599 3.358960
H 4.006726 -1.359765 0.057250
H 3.134206 -0.875935 1.563753
H 4.812854 -0.308076 1.264201
H 2.641021 -0.051147 -2.656061
H 0.483426 -0.778905 -3.701601
H -1.611384 -0.702680 -2.393960
H -1.853466 0.855997 1.001619
H -3.068691 -1.241521 1.602613
H -1.302156 -1.491552 1.615329
H -2.277725 -2.095900 0.251684
H -4.093645 0.565371 0.095809
H -3.095041 1.376540 -1.138492
H -3.498148 -0.350659 -1.298584