25
Extracted from mol_126.out
O -3.991545 0.225922 1.117974
B -2.909581 -0.504649 0.725461
O -2.967975 -1.861237 0.921540
C -1.718426 0.256430 0.016783
C -2.096428 1.278946 -0.875039
C -1.153448 1.992858 -1.612881
C 0.193786 1.687958 -1.457201
C 0.615265 0.680643 -0.569996
C 2.105114 0.491110 -0.539727
O 2.888691 1.245545 -1.072007
O 2.516585 -0.618806 0.107333
C 3.926707 -0.840412 0.134969
C -0.340641 -0.042565 0.194071
C 0.068982 -1.077711 1.223611
H -4.689565 -0.336269 1.482089
H -2.205773 -2.337875 0.573847
H -3.158552 1.514547 -0.982406
H -1.465538 2.782122 -2.301598
H 0.961989 2.226448 -2.014953
H 4.078750 -1.767224 0.702844
H 4.326093 -0.946505 -0.885270
H 4.446716 -0.001959 0.622904
H -0.780560 -1.370049 1.853442
H 0.488717 -1.981085 0.751516
H 0.860637 -0.696184 1.882693