23
Extracted from mol_1759.out
O -4.233640 -0.531713 0.041503
B -2.954457 -0.940209 0.248271
O -2.747031 -2.192680 0.741977
C -1.642288 -0.084952 -0.034934
C -1.625441 1.240471 -0.543538
C -2.857117 1.918599 -0.846625
N -3.866945 2.442138 -1.088091
C -0.418544 1.930079 -0.767093
C 0.796913 1.312392 -0.488454
C 0.811459 0.002559 0.015255
C 2.087730 -0.715138 0.334758
O 2.144964 -1.841221 0.768534
O 3.174290 0.038073 0.083454
C 4.439313 -0.566031 0.358142
C -0.396513 -0.673764 0.233842
H -4.361586 0.360757 -0.309097
H -3.578527 -2.662367 0.892238
H -0.443853 2.948947 -1.159123
H 1.736841 1.838569 -0.658631
H 4.519551 -0.836533 1.422148
H 4.574632 -1.477832 -0.243458
H 5.198579 0.181125 0.095658
H -0.358329 -1.691268 0.626339