31
Extracted from mol_309.out
O -2.432271 -2.563139 2.486264
B -2.339340 -1.341515 1.891852
O -3.474218 -0.571336 1.852545
C -0.928106 -0.878698 1.349407
C 0.180598 -1.118580 2.190563
C 1.464244 -0.702311 1.852499
C 1.673860 -0.038007 0.635055
C 3.063667 0.395722 0.298689
O 4.027252 0.221234 1.009129
O 3.140943 1.012908 -0.898947
C 4.437659 1.453324 -1.296608
C 0.590070 0.185904 -0.223742
C -0.710007 -0.224151 0.110550
C -1.841718 0.021284 -0.890252
C -1.568905 -0.650031 -2.248217
C -2.139067 1.522441 -1.064858
H -3.320904 -2.727610 2.831999
H -3.335180 0.309081 1.485177
H 0.020756 -1.646547 3.134385
H 2.316932 -0.882430 2.510178
H 4.843004 2.181898 -0.577321
H 4.314675 1.919937 -2.282294
H 5.137477 0.605632 -1.359840
H 0.779778 0.688062 -1.173514
H -2.750720 -0.449509 -0.484807
H -2.432913 -0.526035 -2.921909
H -1.381970 -1.728872 -2.128953
H -0.691490 -0.211284 -2.750991
H -2.380648 2.007053 -0.103390
H -2.991568 1.678197 -1.746613
H -1.271888 2.057379 -1.486040