17
Extracted from mol_1618.out
O 2.977867 -0.347584 -0.919676
B 2.220762 0.311276 0.005902
O 2.865316 1.109196 0.892948
C 0.650462 0.026924 -0.073015
C 0.276849 -0.978914 -0.995060
C -1.046114 -1.370417 -1.192997
C -2.060035 -0.756495 -0.465876
C -1.746231 0.253933 0.463509
C -2.833095 0.856453 1.184461
N -3.751020 1.303987 1.737526
C -0.395371 0.632241 0.649605
I -0.047266 2.189185 2.087320
H 3.917110 -0.144444 -0.815078
H 2.290618 1.568084 1.525413
H 1.072620 -1.457519 -1.568614
H -1.287076 -2.153702 -1.915501
H -3.105394 -1.042203 -0.600868