23
Extracted from mol_1176.out
O -3.870428 1.970629 0.125254
B -2.506131 1.903642 0.217054
O -1.803113 3.067289 0.238506
C -1.708834 0.542391 0.294817
C -2.355622 -0.657315 0.644849
C -1.625213 -1.845209 0.700716
I -2.598381 -3.662873 1.240898
C -0.262910 -1.865726 0.410173
C 0.396922 -0.670373 0.060879
N 1.773027 -0.758763 -0.217672
C 2.654010 0.235829 -0.607483
O 2.338315 1.397767 -0.764649
C 4.073781 -0.267375 -0.833753
C -0.332403 0.530678 0.010477
H -4.304004 1.114139 0.036227
H -2.376523 3.841599 0.159272
H -3.420133 -0.669914 0.893069
H 0.295820 -2.804105 0.454520
H 2.166417 -1.688559 -0.127011
H 4.463311 -0.787268 0.057083
H 4.714442 0.593342 -1.060432
H 4.108258 -0.973391 -1.680446
H 0.179392 1.453566 -0.252352