40
Extracted from mol_384.out
O 0.673074 4.922598 -0.173936
B 0.621228 3.581270 -0.423808
O 1.714738 2.957337 -0.946727
C -0.727646 2.819846 -0.109576
C -1.890999 3.551971 0.191722
C -3.104564 2.909714 0.435685
C -3.177668 1.517357 0.366047
C -2.048590 0.734818 0.062498
C -2.177611 -0.747959 -0.029448
C -2.883474 -1.462017 0.957842
C -3.050444 -2.846542 0.865100
C -2.517125 -3.546818 -0.220837
C -1.814521 -2.850386 -1.210510
C -1.643459 -1.467185 -1.116336
C -0.829376 1.414383 -0.158736
O 0.318999 0.685115 -0.448731
C 0.974727 0.092848 0.695737
C 2.209629 -0.641554 0.242105
C 2.177818 -2.027693 0.027155
C 3.319658 -2.706368 -0.408470
C 4.506551 -2.003918 -0.639371
C 4.547230 -0.620963 -0.432997
C 3.405917 0.055406 0.005841
H 1.527275 5.296453 -0.428916
H 1.512578 2.014596 -1.089908
H -1.827349 4.642250 0.229693
H -4.001775 3.490685 0.664820
H -4.136369 1.016050 0.522652
H -3.293693 -0.925169 1.817293
H -3.597268 -3.379857 1.647576
H -2.648460 -4.629581 -0.296591
H -1.399732 -3.387531 -2.068008
H -1.093305 -0.933707 -1.892884
H 0.274364 -0.594864 1.196736
H 1.234420 0.897564 1.406485
H 1.248665 -2.577303 0.202155
H 3.282754 -3.787439 -0.567899
H 5.400559 -2.534161 -0.978765
H 5.472599 -0.066765 -0.611592
H 3.440644 1.137514 0.161223