26
Extracted from mol_1229.out
O 4.641217 -1.303371 -0.176828
B 3.883756 -0.337458 0.416334
O 4.564719 0.579158 1.162138
C 2.312134 -0.282891 0.248544
C 1.540462 -1.440893 0.041396
C 0.155122 -1.407209 -0.099803
C -0.534415 -0.180229 -0.050329
N -1.927570 -0.102564 -0.173157
C -2.833313 -1.105519 -0.495839
O -2.521615 -2.255191 -0.729820
C -4.274592 -0.620487 -0.524739
C 0.224450 1.006016 0.138647
C -0.440927 2.359222 0.120826
F 0.403524 3.358741 0.393790
F -1.007486 2.625539 -1.075655
F -1.452169 2.438382 1.029662
C 1.611531 0.933468 0.290970
H 4.140249 -1.866366 -0.777389
H 3.989251 1.176198 1.652755
H 2.030390 -2.420002 0.006061
H -0.416174 -2.319263 -0.252936
H -2.340638 0.802168 0.018299
H -4.592533 -0.282796 0.475854
H -4.396439 0.225625 -1.220772
H -4.915786 -1.450829 -0.843974
H 2.156855 1.870553 0.425965