17
Extracted from mol_1619.out
O 3.153298 0.592428 0.973025
B 2.295232 -0.243933 0.337574
O 2.801673 -1.396271 -0.188809
C 0.726239 -0.032143 0.129817
C 0.062540 -1.069492 -0.567641
C -1.301726 -1.052016 -0.836670
C -2.076159 0.037889 -0.404491
C -3.488463 0.085375 -0.666868
N -4.629329 0.123441 -0.879452
C -1.459428 1.091836 0.291957
C -0.087083 1.041520 0.544998
I 0.667658 2.745161 1.622215
H 2.755610 1.400465 1.332444
H 3.752726 -1.469733 -0.032383
H 0.662145 -1.916983 -0.904225
H -1.773087 -1.874524 -1.378068
H -2.061846 1.936981 0.626579