20
Extracted from mol_1639.out
O 3.802268 1.303217 -0.008768
B 3.072232 0.160134 0.007975
O 3.763643 -0.985585 0.271657
C 1.488528 0.104697 -0.175972
C 0.775937 -0.752748 0.694237
C -0.611215 -0.880069 0.655028
C -1.375698 -0.151953 -0.273834
B -2.946595 -0.305535 -0.311322
O -3.506622 -1.284227 0.451359
O -3.774249 0.486093 -1.057400
C -0.685682 0.701961 -1.152285
C 0.705095 0.827194 -1.093829
I 1.595425 2.175242 -2.513531
H 3.290424 2.089869 -0.235583
H 3.222258 -1.780474 0.210650
H 1.337083 -1.328220 1.437966
H -1.117582 -1.552630 1.351511
H -4.470590 -1.297011 0.377991
H -3.332976 1.191935 -1.543343
H -1.231684 1.278112 -1.904894