21
Extracted from mol_1681.out
O -3.267518 -1.306292 0.636627
B -2.602023 -0.373246 -0.109045
O -3.324219 0.417186 -0.945818
C -1.022403 -0.244527 -0.057218
C -0.270464 -1.437615 -0.071310
C 1.123251 -1.430192 -0.058892
C 1.812206 -0.209285 -0.012850
C 3.321861 -0.216129 0.047415
F 3.843057 -1.077127 -0.846657
F 3.845648 0.993001 -0.197985
F 3.759155 -0.605167 1.261089
C 1.097215 0.985075 0.011369
C -0.307446 0.975630 -0.014202
C -1.000324 2.300333 0.040281
O -0.413208 3.358048 0.084088
H -2.706922 -1.793168 1.252596
H -4.272172 0.224851 -0.905063
H -0.786356 -2.401957 -0.116663
H 1.678836 -2.370511 -0.089996
H 1.605603 1.950179 0.050299
H -2.113777 2.260911 0.041934