32
Extracted from mol_417.out
O -3.327453 -1.993261 -1.039322
B -1.981358 -2.026318 -0.822300
O -1.309675 -3.197824 -1.014801
C -1.138440 -0.763169 -0.381245
C -1.707177 0.464621 0.004264
O -3.107259 0.555237 -0.039940
C -3.845342 1.147560 0.959474
O -3.366383 1.671570 1.923839
C -5.315469 1.021467 0.649070
C -0.924011 1.565268 0.356822
C 0.464955 1.444083 0.337727
C 1.091726 0.238224 -0.028321
C 2.574529 0.114330 -0.041425
C 3.230138 -0.650271 -1.025827
C 4.621866 -0.766029 -1.038644
C 5.392464 -0.119747 -0.067047
C 4.757041 0.642734 0.917900
C 3.365142 0.757876 0.930320
C 0.265691 -0.841443 -0.383113
H -3.668915 -1.099182 -0.887856
H -1.902462 -3.905408 -1.301209
H -5.532104 1.437689 -0.346920
H -5.604319 -0.042035 0.633192
H -5.896034 1.549054 1.415219
H -1.389705 2.506984 0.643002
H 1.072358 2.315976 0.592002
H 2.642420 -1.141952 -1.804819
H 5.107947 -1.359209 -1.818125
H 6.481900 -0.210408 -0.076926
H 5.348233 1.145200 1.688472
H 2.881449 1.335653 1.721946
H 0.718250 -1.797268 -0.655409