17
Extracted from mol_1622.out
O -2.784528 0.953301 -0.454455
B -2.008760 -0.135081 -0.180826
O -2.621141 -1.335580 -0.029034
C -0.443471 0.154805 -0.072940
C -0.012848 1.477494 -0.266821
C 1.336469 1.827581 -0.192044
C 2.305435 0.859156 0.080806
C 1.916172 -0.466898 0.279309
I 3.413768 -1.914802 0.690050
C 0.551657 -0.824450 0.204569
C 0.147673 -2.188217 0.408996
N -0.263189 -3.264779 0.564976
H -3.720431 0.716670 -0.508061
H -2.057728 -2.098868 0.165175
H -0.763507 2.240336 -0.480786
H 1.644434 2.865058 -0.347536
H 3.359997 1.134275 0.138622