17
Extracted from mol_760.out
O -2.876021 -1.085547 -0.622526
B -2.175322 -0.449414 0.358949
O -2.851900 -0.194789 1.512820
C -0.657292 -0.034695 0.168437
C -0.158070 1.143253 0.750770
C 1.183574 1.495663 0.567947
Cl 1.788301 2.973001 1.284999
C 2.054092 0.698223 -0.172998
C 1.565225 -0.483200 -0.751299
O 2.442794 -1.238158 -1.456113
C 0.218598 -0.836937 -0.585141
H -2.392979 -1.140055 -1.454695
H -2.291392 0.169442 2.207503
H -0.805450 1.805376 1.330316
H 3.100574 0.973266 -0.308294
H 1.997043 -2.026101 -1.794847
H -0.141772 -1.769329 -1.035829