22
Extracted from mol_933.out
O -3.525312 -0.511410 -0.443018
B -2.444257 -0.931265 0.283921
O -2.478154 -2.020020 1.112374
C -1.058470 -0.183920 0.147561
C -0.877542 1.184799 -0.201742
C -2.004080 2.137791 -0.388756
O -1.857527 3.304602 -0.694535
C 0.421436 1.698532 -0.338015
C 1.550224 0.906471 -0.143138
C 1.382598 -0.442752 0.212871
O 2.399130 -1.307776 0.435177
C 3.732947 -0.863376 0.307351
C 0.084607 -0.964266 0.359504
H -4.335245 -1.024016 -0.328112
H -3.316291 -2.496496 1.146712
H -3.022454 1.721200 -0.221657
H 0.522651 2.754724 -0.599380
H 2.542918 1.342285 -0.261736
H 3.966362 -0.053704 1.022234
H 3.951180 -0.508515 -0.716121
H 4.372701 -1.728521 0.528348
H -0.007425 -2.014363 0.643428