20
Extracted from mol_833.out
O 2.846796 -1.741268 -0.450866
B 2.633809 -0.445085 -0.087338
O 3.729724 0.340387 0.154250
C 1.148176 0.054928 0.028310
C 0.802933 1.373747 0.370503
C -0.524935 1.788059 0.463334
C -1.565449 0.882603 0.213221
O -2.865856 1.235937 0.289390
C -1.251026 -0.450084 -0.131978
C -2.362210 -1.436424 -0.406049
F -1.877605 -2.655469 -0.706766
F -3.130619 -1.052183 -1.441398
F -3.174955 -1.586625 0.655073
C 0.086360 -0.837192 -0.218429
H 3.787954 -1.956726 -0.493990
H 3.527262 1.245726 0.414284
H 1.581173 2.118270 0.573770
H -0.767494 2.821585 0.731081
H -2.940869 2.168858 0.530979
H 0.316830 -1.869045 -0.487376