24
Extracted from mol_1239.out
O 4.449489 1.603895 0.075560
B 3.840129 0.416098 -0.197941
O 4.664727 -0.608509 -0.555630
C 2.270091 0.239643 -0.102772
C 1.382594 1.302911 -0.369955
C -0.002566 1.175202 -0.294570
C -0.575639 -0.056233 0.074461
N -1.950189 -0.268470 0.181246
C -2.990800 0.631085 -0.025586
O -2.823393 1.789711 -0.345298
C -4.365773 0.018024 0.179512
C 0.298764 -1.145071 0.354642
C -0.260231 -2.408073 0.737747
N -0.767696 -3.409914 1.039945
C 1.691185 -0.984221 0.257647
H 3.850406 2.271211 0.428222
H 4.196443 -1.396365 -0.852993
H 1.785222 2.276999 -0.667573
H -0.660211 2.012396 -0.515672
H -2.222021 -1.210042 0.451391
H -4.557996 -0.764419 -0.573496
H -5.119040 0.808267 0.076453
H -4.453141 -0.445699 1.175663
H 2.319644 -1.848426 0.491174