29
Extracted from mol_511.out
O -1.287947 3.155654 -1.771985
B -0.505398 2.388191 -0.958704
O 0.661814 2.930912 -0.507996
C -1.064427 0.957215 -0.566507
C -2.451311 0.759243 -0.715656
C -3.083998 -0.414485 -0.307394
C -2.322947 -1.434318 0.270837
C -2.966337 -2.737715 0.677423
F -2.830711 -3.675583 -0.280902
F -2.410082 -3.242139 1.794867
F -4.283048 -2.599538 0.909230
C -0.942896 -1.272286 0.422408
C -0.300452 -0.096134 0.002893
C 1.185206 -0.024883 0.161957
C 1.782964 -0.217345 1.422446
C 3.173134 -0.191942 1.568199
C 3.993015 0.019812 0.455441
C 3.413941 0.206605 -0.804056
C 2.024409 0.184601 -0.950002
H -0.891748 4.023279 -1.930360
H 1.196558 2.331001 0.028251
H -3.047029 1.562653 -1.154584
H -4.162241 -0.535474 -0.427267
H -0.351272 -2.079465 0.859621
H 1.147008 -0.377999 2.297090
H 3.616560 -0.336379 2.556988
H 5.080112 0.037501 0.568599
H 4.047425 0.363852 -1.681043
H 1.579697 0.315165 -1.939791