22
Extracted from mol_990.out
O -3.592099 -0.285821 0.933787
B -2.755708 -0.285055 -0.151011
O -3.281861 -0.501547 -1.387779
C -1.266482 0.283803 -0.079682
C -1.033097 1.664464 -0.028402
C 0.273286 2.156459 0.027852
C 1.367067 1.290376 0.041567
C 1.180127 -0.103773 -0.010636
O 2.189552 -0.985132 0.028443
C 3.525008 -0.530838 0.126860
C -0.158491 -0.575584 -0.078859
N -0.469944 -2.011397 -0.134405
O 0.385332 -2.810116 -0.455428
O -1.630766 -2.322007 0.147644
H -3.140390 -0.169418 1.776827
H -4.196210 -0.812111 -1.336193
H -1.876147 2.359994 -0.039647
H 0.450950 3.234858 0.064563
H 2.374661 1.701002 0.097808
H 3.810638 0.086251 -0.743080
H 4.151123 -1.432274 0.147395
H 3.693452 0.047867 1.052376