23
Extracted from mol_146.out
O -3.107922 -1.447444 -0.652187
B -2.810148 -0.297653 0.035185
O -3.787216 0.483562 0.600095
C -1.326171 0.218790 0.167994
C -1.184046 1.609571 0.369745
C 0.069804 2.204735 0.460921
C 1.220411 1.419509 0.366250
C 1.113422 0.033984 0.184110
S 2.540249 -1.036163 0.068044
C 3.947385 0.098221 0.237867
C -0.162164 -0.585628 0.081535
C -0.211371 -2.085911 -0.090743
H -4.045769 -1.671154 -0.695142
H -4.692915 0.181252 0.464038
H -2.082359 2.224857 0.452138
H 0.162017 3.284464 0.608651
H 2.196879 1.899143 0.440459
H 3.951573 0.607354 1.213655
H 3.977443 0.841494 -0.573242
H 4.841661 -0.537738 0.167301
H 0.338526 -2.587714 0.724868
H 0.286130 -2.388459 -1.029387
H -1.235420 -2.469073 -0.114824