23
Extracted from mol_798.out
O -0.592506 2.617757 -0.945411
B -0.751733 1.806531 0.135263
O -0.837450 2.387415 1.373697
C -1.023147 0.260866 -0.107426
C -2.348919 -0.143043 -0.293538
C -2.665791 -1.493881 -0.517439
C -1.672118 -2.461415 -0.563927
C -0.324556 -2.095169 -0.385059
O 0.601822 -3.054502 -0.444264
C -0.002798 -0.727158 -0.147143
C 1.416671 -0.389640 0.046784
O 2.340950 -1.194791 -0.019533
O 1.635825 0.903370 0.323918
C 2.991961 1.317954 0.499930
H -0.506427 3.545352 -0.685051
H -0.971159 1.752311 2.086469
H -3.153126 0.597798 -0.275936
H -3.709229 -1.788708 -0.662561
H -1.898906 -3.514607 -0.741702
H 1.482759 -2.623819 -0.313318
H 3.570735 1.148272 -0.420344
H 3.465449 0.760500 1.321879
H 2.951691 2.388604 0.734712