19
Extracted from mol_1912.out
O -2.195733 -2.092203 0.032616
B -2.139544 -0.744061 -0.143223
O -3.292296 -0.065629 -0.367701
C -0.678808 -0.109584 -0.061571
C 0.398938 -0.978776 0.177389
C 1.699163 -0.487953 0.259210
N 2.812992 -1.437451 0.512669
O 3.938669 -0.971936 0.575236
O 2.528847 -2.615058 0.640804
C 1.997656 0.866968 0.111571
C 0.949113 1.749967 -0.125589
C -0.372004 1.268009 -0.211212
C -1.422813 2.218970 -0.458626
N -2.291577 2.963680 -0.662765
H -3.099521 -2.430655 -0.026232
H -3.232453 0.891897 -0.490838
H 0.222633 -2.047053 0.300618
H 3.031568 1.203733 0.183743
H 1.145167 2.817135 -0.246097