20
Extracted from mol_175.out
O -3.641713 0.582603 0.863090
B -2.915216 -0.323685 0.151986
O -3.617734 -1.351389 -0.401781
C -1.345393 -0.192394 -0.023325
C -0.690642 -0.636654 -1.187771
C 0.691566 -0.515572 -1.346792
C 1.496495 0.045052 -0.346671
C 2.987812 0.172651 -0.512225
C 0.849783 0.490660 0.833228
C 1.623182 1.071299 1.896830
N 2.252723 1.541106 2.752664
C -0.543888 0.374700 0.979397
H -3.131557 1.347130 1.152720
H -3.059515 -2.025009 -0.805736
H -1.274043 -1.075852 -2.003957
H 1.161810 -0.863476 -2.270813
H 3.317069 -0.229306 -1.480879
H 3.307357 1.226051 -0.448491
H 3.525663 -0.364840 0.286172
H -0.993760 0.726924 1.912353