27
Extracted from mol_1218.out
O -3.908806 -1.518787 0.747132
B -2.820791 -1.979822 0.075229
O -2.946090 -3.129199 -0.657937
C -1.397106 -1.285519 0.072314
C -0.333573 -1.980371 -0.540710
C 0.961768 -1.476930 -0.583965
C 1.260945 -0.228822 -0.008433
N 2.587609 0.228241 -0.079704
C 3.127457 1.423506 0.361551
O 2.484833 2.291611 0.918378
C 4.615887 1.562854 0.071792
C 0.224677 0.495343 0.607510
C -1.073906 -0.029368 0.637710
S -2.306688 0.995429 1.485256
C -3.073676 1.857755 0.061224
H -3.693296 -0.713298 1.260412
H -3.839939 -3.489913 -0.586830
H -0.542429 -2.952144 -0.993976
H 1.755071 -2.055888 -1.068236
H 3.230798 -0.410201 -0.534096
H 5.185796 0.700923 0.455965
H 4.795071 1.630604 -1.014491
H 4.978131 2.480781 0.550260
H 0.440761 1.461923 1.056020
H -3.824092 2.544488 0.480035
H -2.318330 2.436272 -0.489250
H -3.570080 1.140533 -0.607955