27
Extracted from mol_298.out
O -0.001148 -1.992646 -2.113030
B -1.040358 -1.501294 -1.380945
O -2.211543 -2.213227 -1.387986
C -0.931052 -0.094996 -0.664266
C -1.898188 0.847960 -1.076345
C -1.919683 2.156913 -0.591304
C -0.952357 2.547705 0.328667
C 0.016270 1.626695 0.789190
C 0.932140 2.039482 1.865624
O 1.373612 3.261796 1.737793
C 0.029317 0.286885 0.303416
C 1.109697 -0.647887 0.840622
C 2.341221 -0.692078 -0.086976
C 0.610573 -2.058595 1.188023
H -0.223960 -2.836019 -2.532278
H -2.895039 -1.830702 -0.824701
H -2.655304 0.548413 -1.809035
H -2.688377 2.859702 -0.923802
H -0.983059 3.560346 0.744519
H 1.081933 3.702841 0.898730
H 1.439989 -0.174693 1.781913
H 3.142030 -1.294999 0.373303
H 2.090966 -1.135156 -1.062701
H 2.744130 0.318942 -0.259970
H 1.387587 -2.599465 1.752397
H 0.394259 -2.660176 0.292224
H -0.293656 -2.025747 1.816921