26
Extracted from mol_1739.out
O -0.316408 0.055880 -3.375454
B -1.269359 0.127686 -2.399820
O -2.537940 0.457972 -2.765918
C -0.780323 -0.128038 -0.910570
C -1.606898 -0.357638 0.219630
S -3.371461 -0.579901 -0.014627
C -4.102229 0.123149 1.500675
C -1.048987 -0.482482 1.504330
C 0.325293 -0.375829 1.690078
C 1.170170 -0.165268 0.590448
C 2.638162 -0.070536 0.841129
O 3.151967 -0.158137 1.934028
O 3.345917 0.125298 -0.288260
C 4.760271 0.225556 -0.137736
C 0.607774 -0.051690 -0.687212
H -0.688289 0.257717 -4.244522
H -3.156234 0.477651 -2.015270
H -3.694825 1.122921 1.707862
H -5.180416 0.202392 1.300014
H -3.955531 -0.535242 2.368637
H -1.687352 -0.678012 2.367391
H 0.767000 -0.467579 2.684703
H 5.165586 0.376979 -1.146184
H 5.026885 1.073420 0.512341
H 5.173967 -0.693210 0.306272
H 1.263257 0.116943 -1.541967