23
Extracted from mol_1152.out
O -2.121884 -2.772205 -0.368651
B -1.069809 -1.954053 -0.074850
O 0.144287 -2.571593 0.119061
C -1.180888 -0.389636 0.039633
C -2.470151 0.172866 0.106886
C -2.672317 1.547824 0.189445
Cl -4.299342 2.191193 0.274724
C -1.572277 2.408791 0.204823
C -0.280992 1.890749 0.147864
C -0.065014 0.498651 0.074606
N 1.228914 -0.039788 0.033089
C 2.447325 0.610554 0.013218
O 2.587981 1.819771 0.022686
C 3.633894 -0.343484 -0.035314
H -2.946459 -2.316568 -0.573442
H 0.087175 -3.530533 0.004734
H -3.355254 -0.469602 0.109929
H -1.726449 3.488092 0.265419
H 0.580854 2.553912 0.160943
H 1.258364 -1.057474 0.038285
H 3.583675 -1.088503 0.775405
H 3.651527 -0.890304 -0.992941
H 4.556838 0.241342 0.060256