24
Extracted from mol_955.out
O 3.622048 -1.989040 1.076518
B 3.329895 -0.750024 0.591008
O 4.403465 0.051498 0.325310
C 1.842330 -0.268711 0.355428
C 1.481774 1.089512 0.376403
C 0.165211 1.505897 0.177519
C -0.848948 0.563311 -0.059428
O -2.146428 0.932695 -0.261406
C -2.511518 2.300044 -0.237588
C -0.529329 -0.818225 -0.089787
C -1.487730 -1.974365 -0.323500
O -1.081776 -3.127755 -0.296905
N -2.790443 -1.673163 -0.561098
C 0.805268 -1.186017 0.121910
H 2.840107 -2.498950 1.317340
H 4.162593 0.873630 -0.115097
H 2.238922 1.857320 0.570232
H -0.067038 2.570063 0.211985
H -1.992436 2.873296 -1.025135
H -2.301311 2.759563 0.743574
H -3.593269 2.334646 -0.424123
H -3.114884 -0.714800 -0.567387
H -3.424618 -2.448328 -0.710554
H 0.998112 -2.262095 0.082325