16
Extracted from mol_1260.out
O -2.351361 1.754826 0.173873
B -1.988681 0.444706 0.088255
O -2.979834 -0.498504 0.077516
C -0.452038 0.105836 0.012973
C 0.030197 -1.196718 -0.211176
C 1.398936 -1.473158 -0.271867
C 2.310337 -0.435053 -0.105333
F 3.623318 -0.669680 -0.156335
C 1.855531 0.870776 0.117130
F 2.752506 1.849480 0.273640
C 0.494197 1.138015 0.173263
H -3.310162 1.864515 0.228670
H -2.667728 -1.410023 0.054702
H -0.665724 -2.030433 -0.352317
H 1.779771 -2.481679 -0.447719
H 0.170736 2.167092 0.344727