19
Extracted from mol_1615.out
O -2.860408 -0.077934 -0.352087
B -1.873052 0.741492 0.098426
O -2.222456 1.948502 0.622382
C -0.311759 0.446854 -0.002116
C 0.320579 -0.811104 0.134647
C -0.484167 -2.048207 0.456216
F -1.297772 -1.868511 1.509363
F 0.280039 -3.115031 0.714776
F -1.290856 -2.402555 -0.591572
C 1.706897 -0.939600 -0.004256
C 2.500655 0.172746 -0.292471
C 1.889850 1.421029 -0.423814
I 3.077117 3.131532 -0.851066
C 0.507125 1.558952 -0.272565
H -2.561194 -0.920572 -0.717218
H -3.181332 2.076222 0.616317
H 2.177440 -1.916326 0.118019
H 3.580444 0.059999 -0.404087
H 0.042852 2.542512 -0.358896