24
Extracted from mol_1232.out
O 0.746060 2.445156 0.830447
B -0.545459 2.108979 0.498324
O -1.450587 3.127851 0.483840
C -0.897142 0.612809 0.155595
C -2.251199 0.254921 0.082334
C -2.678351 -1.043561 -0.236270
C -4.076969 -1.355715 -0.296104
N -5.212139 -1.599633 -0.344655
C -1.701594 -2.024002 -0.494633
C -0.350114 -1.715280 -0.424482
C 0.072786 -0.408904 -0.091542
N 1.426618 -0.083282 0.001197
C 2.539995 -0.876968 -0.228893
O 2.496062 -2.039622 -0.580794
C 3.852804 -0.146618 0.012580
H 0.845395 3.391778 1.004502
H -2.334323 2.894425 0.177657
H -3.024279 1.000455 0.290606
H -2.010284 -3.040340 -0.749421
H 0.403554 -2.473501 -0.622483
H 1.607390 0.873561 0.301455
H 3.959091 0.114311 1.078803
H 3.903537 0.788809 -0.568036
H 4.679151 -0.805629 -0.280024