25
Extracted from mol_1245.out
O -2.984571 -2.340883 -0.044298
B -3.191706 -1.009943 0.123948
O -4.448893 -0.575071 0.440469
C -1.960197 -0.031070 -0.050524
C -2.136401 1.349623 -0.284192
C -1.040045 2.183600 -0.427496
C 0.260877 1.665596 -0.335482
N 1.349968 2.638043 -0.496967
O 2.519768 2.243352 -0.436724
O 1.059762 3.805331 -0.685537
C 0.485926 0.275553 -0.101608
N 1.773340 -0.235727 -0.012340
C 2.189532 -1.540920 0.225504
O 1.441003 -2.480415 0.399738
C 3.703252 -1.679347 0.249274
C -0.661077 -0.542684 0.030268
H -3.785392 -2.861407 0.106331
H -4.511553 0.370411 0.618303
H -3.137944 1.781381 -0.374593
H -1.151150 3.250768 -0.614586
H 2.490965 0.479165 -0.139356
H 4.143990 -1.345135 -0.704284
H 3.956955 -2.732372 0.420726
H 4.139283 -1.062245 1.052149
H -0.505694 -1.605602 0.200640