22
Extracted from mol_1310.out
O 1.346334 -2.084155 -0.831090
B 1.796488 -1.024602 -0.116800
O 3.089658 -1.058187 0.331049
C 0.985678 0.306619 0.228335
C 1.812907 1.394594 0.588234
C 1.319617 2.647941 0.946999
C -0.059051 2.829082 0.980069
F -0.562355 4.018608 1.332308
C -0.925587 1.794089 0.660054
C -0.419039 0.542016 0.264299
C -1.524207 -0.433962 -0.037865
O -2.639162 -0.347100 0.414110
O -1.209382 -1.410968 -0.931412
C -2.264893 -2.327239 -1.260929
H 0.417426 -1.958780 -1.091974
H 3.526438 -1.876100 0.058128
H 2.892644 1.237397 0.590223
H 1.983024 3.474953 1.209555
H -2.002842 1.952329 0.717404
H -1.835911 -3.036401 -1.979747
H -2.616880 -2.852753 -0.361493
H -3.110908 -1.787382 -1.709459