20
Extracted from mol_906.out
O -2.034925 2.217832 -1.087879
B -1.066538 1.773218 -0.236047
O -0.409910 2.660311 0.559745
C -0.772304 0.217893 -0.200570
C -1.652185 -0.680050 -0.831511
C -1.456329 -2.060184 -0.765041
C -0.374467 -2.577507 -0.047708
C 0.513977 -1.705132 0.586074
Br 1.953940 -2.428996 1.608969
C 0.329259 -0.314190 0.503500
O 1.198082 0.546032 1.145396
C 2.406286 0.849227 0.442794
H -2.160221 3.173648 -1.014809
H 0.229600 2.184460 1.119198
H -2.506003 -0.273706 -1.378924
H -2.150323 -2.743534 -1.261116
H -0.217076 -3.655109 0.029909
H 2.985023 1.525217 1.087495
H 2.187826 1.352318 -0.515132
H 2.996289 -0.061749 0.255656