29
Extracted from mol_335.out
O -3.416031 -2.392765 -0.212369
B -2.181372 -2.207321 -0.745064
O -1.715149 -3.220765 -1.535197
C -1.268601 -0.934820 -0.444962
C -1.738509 0.368707 -0.147621
S -3.503554 0.681794 -0.224255
C -3.735093 2.127051 0.857240
C -0.827396 1.393477 0.151686
C 0.544788 1.142148 0.180938
C 1.054842 -0.133599 -0.101097
C 2.548864 -0.428279 -0.063815
C 3.133990 -0.253394 1.349111
C 3.328337 0.404228 -1.097242
C 0.125977 -1.135276 -0.412384
H -3.722806 -1.625043 0.294137
H -0.875292 -3.011898 -1.958347
H -3.348767 3.049703 0.400000
H -4.822690 2.229180 0.982788
H -3.269768 1.968647 1.841143
H -1.179203 2.405091 0.359986
H 1.223324 1.964660 0.425229
H 2.669016 -1.491045 -0.339412
H 2.602926 -0.879670 2.083293
H 3.060348 0.793901 1.687181
H 4.200152 -0.533986 1.368353
H 2.933905 0.253405 -2.114634
H 3.269937 1.482465 -0.872644
H 4.394850 0.124515 -1.099398
H 0.512977 -2.141110 -0.612646