27
Extracted from mol_526.out
O 4.725558 -0.487828 0.599421
B 3.485403 -1.038994 0.508977
O 3.345405 -2.374039 0.768521
C 2.286160 -0.096790 0.100680
C 2.549911 1.177024 -0.427990
C 1.494226 2.018838 -0.816483
C 1.770947 3.321730 -1.360006
N 1.992326 4.373154 -1.800498
C 0.161120 1.595912 -0.668012
C -0.134194 0.332869 -0.132758
C -1.543376 -0.117128 0.033208
C -2.517877 0.183060 -0.937482
C -3.839422 -0.241294 -0.782404
C -4.216218 -0.974328 0.347212
C -3.259937 -1.278975 1.320812
C -1.938146 -0.855217 1.165305
C 0.944820 -0.490838 0.239189
H 5.402007 -1.138162 0.832165
H 2.459393 -2.722816 0.618161
H 3.581969 1.514902 -0.539419
H -0.646203 2.273643 -0.951968
H -2.233139 0.734519 -1.837120
H -4.577499 -0.003487 -1.553076
H -5.250810 -1.305617 0.468784
H -3.546057 -1.842412 2.213004
H -1.207620 -1.076627 1.947632
H 0.711253 -1.481099 0.644146