23
Extracted from mol_795.out
O -4.396868 0.052523 -0.491565
B -3.425468 0.753639 0.154249
O -3.776085 1.831535 0.915134
C -1.889513 0.386872 0.074342
C -0.938603 1.154654 0.771213
C 0.426959 0.869707 0.731422
C 0.878461 -0.219671 -0.028310
C 2.321566 -0.597764 -0.128522
O 2.739065 -1.532321 -0.775097
O 3.121023 0.217870 0.583166
C 4.517213 -0.072835 0.542019
C -0.041531 -1.005798 -0.734962
C -1.402638 -0.703042 -0.680886
O -2.315776 -1.463793 -1.367299
H -4.020158 -0.686205 -0.995746
H -4.731449 1.977487 0.904157
H -1.297119 2.001853 1.360979
H 1.143924 1.480122 1.281020
H 4.899390 -0.013507 -0.488834
H 4.718486 -1.084158 0.927934
H 5.005424 0.680292 1.173222
H 0.332018 -1.850719 -1.320724
H -1.868322 -2.176742 -1.842269