25
Extracted from mol_290.out
O 2.275321 -2.604274 0.519397
B 1.272197 -1.732482 0.853523
O 0.416068 -2.110068 1.844420
C 1.138575 -0.311352 0.173483
C 2.344371 0.389517 -0.044592
C 2.348620 1.670076 -0.597097
I 4.192934 2.693755 -0.893305
C 1.146062 2.280838 -0.955847
C -0.050114 1.587905 -0.755645
C -0.086507 0.298997 -0.197613
C -1.430933 -0.399019 0.003202
C -2.340512 -0.322987 -1.234873
C -2.145715 0.137883 1.257469
H 2.810561 -2.310997 -0.227825
H 0.631784 -2.988630 2.188180
H 3.294414 -0.068861 0.243653
H 1.133827 3.282814 -1.389532
H -0.982394 2.077258 -1.048725
H -1.222508 -1.462738 0.188805
H -2.682243 0.704845 -1.440810
H -3.242542 -0.937520 -1.080729
H -1.828507 -0.693556 -2.137606
H -3.100793 -0.390109 1.417327
H -2.367913 1.214324 1.160980
H -1.524052 -0.005618 2.153759