20
Extracted from mol_38.out
O 2.094878 2.256442 0.569962
B 1.854078 1.009880 0.051041
O 2.924275 0.320576 -0.437197
C 0.400893 0.396702 -0.013352
C -0.670894 1.297622 -0.140495
C -2.001433 0.866460 -0.215202
O -2.973527 1.810417 -0.346109
C -2.269313 -0.504118 -0.150999
C -1.213122 -1.410611 -0.020870
C 0.124679 -0.996389 0.043372
C 1.217256 -2.033831 0.177139
H 1.314326 2.664905 0.962858
H 3.741753 0.829630 -0.345014
H -0.496533 2.376187 -0.208377
H -3.836458 1.378147 -0.392360
H -3.301893 -0.866237 -0.202392
H -1.443209 -2.479039 0.031366
H 0.789055 -3.039208 0.308298
H 1.874450 -1.828711 1.037455
H 1.870744 -2.048824 -0.709123