20
Extracted from mol_1930.out
O 3.612637 -0.756165 -0.248395
B 2.724465 0.253225 -0.441486
O 3.181045 1.456545 -0.890255
C 1.204366 -0.049874 -0.116459
C 0.848850 -1.228860 0.564469
C -0.481165 -1.516584 0.878652
C -1.486384 -0.626646 0.505827
N -2.860166 -0.908073 0.975297
O -3.234925 -2.064294 0.909943
O -3.480881 0.027756 1.442396
C -1.160525 0.536945 -0.201288
N -2.192750 1.441873 -0.750041
O -3.212119 0.927106 -1.168085
O -1.917802 2.628770 -0.788960
C 0.170053 0.821550 -0.496907
H 4.521817 -0.496101 -0.451016
H 2.525147 2.160174 -0.953287
H 1.633837 -1.928724 0.859418
H -0.758677 -2.420889 1.422489
H 0.363179 1.742266 -1.052312