26
Extracted from mol_225.out
O 2.753174 -2.168821 0.440316
B 2.837176 -0.809246 0.353144
O 4.101897 -0.262845 0.441174
C 1.630095 0.162951 0.167800
C 1.811983 1.571104 0.112426
O 3.018876 2.161224 0.209648
C 0.698310 2.413222 -0.050666
C -0.580463 1.877142 -0.159930
C -0.809183 0.489077 -0.113027
C -2.217855 -0.081505 -0.235774
C -2.384739 -0.953975 -1.492617
C -2.649331 -0.842486 1.030673
C 0.312935 -0.328704 0.050527
H 1.855290 -2.515480 0.383619
H 4.796554 -0.924591 0.560110
H 3.703562 1.473338 0.314144
H 0.867084 3.491739 -0.089257
H -1.431126 2.554754 -0.286535
H -2.898343 0.781444 -0.345489
H -2.116464 -0.397729 -2.404725
H -1.742710 -1.850285 -1.448560
H -3.426835 -1.299842 -1.596697
H -2.022240 -1.734961 1.196351
H -2.567096 -0.207296 1.926850
H -3.694658 -1.184576 0.948471
H 0.154107 -1.413652 0.088029