20
Extracted from mol_1599.out
O -3.937377 -0.193240 0.938516
B -3.069080 0.608069 0.253692
O -3.619522 1.694431 -0.345506
C -1.537186 0.192929 0.133814
C -1.257823 -1.184635 -0.040439
C 0.029325 -1.688596 -0.183278
C 1.134476 -0.817651 -0.146257
S 2.737600 -1.550533 -0.329287
C 3.876618 -0.139036 -0.231952
C 0.902325 0.555865 0.029862
C -0.408561 1.028472 0.156202
I -0.596631 3.154355 0.423571
H -3.499043 -0.903956 1.419272
H -2.979010 2.252500 -0.804190
H -2.095943 -1.887964 -0.082206
H 0.184550 -2.761424 -0.325389
H 3.707239 0.579797 -1.047620
H 3.814365 0.369538 0.741752
H 4.882198 -0.569315 -0.342737
H 1.731477 1.260393 0.068838