30
Extracted from mol_614.out
O -3.347627 -2.678097 0.070707
B -2.256631 -1.862282 -0.021337
O -1.016561 -2.418401 -0.091873
C -2.518292 -0.302202 -0.045124
C -3.841270 0.168211 -0.050790
C -4.124171 1.535815 -0.074471
Br -5.938578 2.135284 -0.080284
C -3.088548 2.469509 -0.094909
C -1.760428 2.030842 -0.089867
C -1.478278 0.658074 -0.063271
O -0.198345 0.166275 -0.057370
C 0.915796 1.046642 0.041333
C 2.181630 0.235548 0.181688
C 2.244635 -0.842495 1.079778
C 3.428533 -1.567684 1.232854
C 4.567647 -1.219435 0.498533
C 4.513612 -0.147104 -0.395797
C 3.324634 0.571825 -0.556577
H -3.093521 -3.610528 0.066656
H -0.334811 -1.731473 -0.173330
H -4.654769 -0.559262 -0.034072
H -3.308647 3.538565 -0.116332
H -0.962822 2.773378 -0.111668
H 0.779853 1.702775 0.922544
H 0.971598 1.694769 -0.851525
H 1.356543 -1.122286 1.652270
H 3.462475 -2.408637 1.930609
H 5.494114 -1.786712 0.620693
H 5.396709 0.126755 -0.979108
H 3.285519 1.402328 -1.267954