36
Extracted from mol_649.out
O -3.274010 2.210031 2.150691
B -3.026854 0.869045 2.038614
O -3.343839 -0.062028 2.989607
C -2.101683 0.397037 0.837050
C -2.665658 -0.037366 -0.387291
C -4.142661 -0.030402 -0.487595
O -4.877317 0.326600 0.415001
O -4.613862 -0.457422 -1.674152
C -6.031380 -0.472553 -1.824507
C -1.841226 -0.450864 -1.441454
C -0.452244 -0.443926 -1.307886
C 0.119402 -0.016021 -0.096711
O 1.450571 0.031522 0.146507
C 2.369051 -0.367918 -0.867987
C 3.770799 -0.226427 -0.331657
C 4.370550 -1.277249 0.378317
C 5.657072 -1.137621 0.905360
C 6.359260 0.059153 0.728847
C 5.769509 1.113815 0.024853
C 4.482242 0.970515 -0.500182
C -0.713988 0.399615 0.960786
H -3.854919 2.458140 2.880140
H -3.921924 0.255371 3.694019
H -6.499286 -1.129390 -1.074797
H -6.449865 0.539147 -1.706752
H -6.228672 -0.849578 -2.836201
H -2.294343 -0.782159 -2.377534
H 0.167444 -0.770508 -2.143076
H 2.233212 0.263555 -1.764824
H 2.171487 -1.415899 -1.158685
H 3.822574 -2.213605 0.519454
H 6.113824 -1.965358 1.454542
H 7.367047 0.169036 1.138474
H 6.314251 2.051212 -0.116301
H 4.022239 1.798139 -1.048242
H -0.226805 0.724676 1.883575