31
Extracted from mol_308.out
O -3.405417 -0.593920 -1.800414
B -2.787953 -0.595960 -0.587094
O -3.551733 -0.287333 0.511619
C -1.285976 -1.089258 -0.506228
C -1.132791 -2.455134 -0.813988
C 0.097073 -3.101332 -0.699387
C 1.204282 -2.366260 -0.293677
C 1.103719 -0.986019 -0.040144
C 2.422336 -0.371599 0.351971
O 3.250141 -0.949071 1.018369
O 2.654008 0.851575 -0.170783
C 3.922601 1.434944 0.133206
C -0.151226 -0.323147 -0.128841
C -0.278067 1.161806 0.234446
C -1.232439 1.964188 -0.665425
C -0.625794 1.347095 1.725534
H -4.342944 -0.365995 -1.725042
H -3.077466 -0.377967 1.346376
H -2.006366 -3.026455 -1.142947
H 0.191347 -4.166771 -0.924515
H 2.178710 -2.844296 -0.176990
H 4.741465 0.804928 -0.246019
H 3.933561 2.413985 -0.362280
H 4.052029 1.552946 1.219969
H 0.713228 1.601491 0.087936
H -2.292514 1.748152 -0.462732
H -1.094183 3.042446 -0.482768
H -1.040093 1.774527 -1.732531
H -1.634329 0.965869 1.955034
H -0.613722 2.415395 1.998624
H 0.088510 0.821165 2.378725