16
Extracted from mol_1476.out
O 2.514960 0.193421 1.339792
B 1.946615 -0.134520 0.144510
O 2.631368 -0.580947 -0.946916
C 0.366275 -0.073920 0.043015
C -0.399154 -1.203178 0.373520
C -1.793048 -1.182828 0.295523
C -2.450684 -0.023947 -0.118108
C -1.713800 1.119125 -0.455214
I -2.802654 2.836652 -1.074809
C -0.312726 1.086064 -0.372273
Br 0.749607 2.614433 -0.819165
H 3.478820 0.148590 1.375768
H 3.592585 -0.609644 -0.859836
H 0.107565 -2.116442 0.698587
H -2.375558 -2.070162 0.556484
H -3.540171 -0.002698 -0.180880