24
Extracted from mol_1825.out
O -3.388709 -1.010420 0.805909
B -2.656482 -0.775442 -0.334037
O -3.125059 -0.981815 -1.610064
C -1.074834 -0.681833 -0.160540
C -0.240505 -1.805761 -0.093113
C 1.141226 -1.664001 0.059453
C 1.752248 -0.398729 0.149658
B 3.303727 -0.207850 0.321125
O 4.192724 -1.239031 0.460749
O 3.798540 1.064612 0.335605
C 0.911658 0.726287 0.078813
C -0.472963 0.589589 -0.070989
C -1.443844 1.727120 -0.154302
O -2.642959 1.485742 -0.300407
N -0.979642 2.997819 -0.069455
H -4.341989 -1.057324 0.666536
H -4.085891 -1.028300 -1.680902
H -0.673040 -2.808269 -0.160915
H 1.752094 -2.573919 0.104377
H 3.787993 -2.113964 0.460371
H 4.758160 1.075529 0.450642
H 1.381791 1.711723 0.143315
H -0.003817 3.213167 0.076255
H -1.650425 3.755070 -0.114854