26
Extracted from mol_870.out
O 3.730049 -1.325467 0.356457
B 2.674375 -0.460487 0.481821
O 2.955931 0.847107 0.739233
C 1.181661 -0.964000 0.382047
C 0.850375 -2.271337 0.802692
C -0.461086 -2.734768 0.749500
C -1.484199 -1.913222 0.260377
C -1.188693 -0.615456 -0.176783
O -2.088453 0.255852 -0.687648
C -3.454719 -0.093068 -0.704132
C 0.145861 -0.158297 -0.100520
O 0.431777 1.102324 -0.594704
C 0.115120 2.195329 0.168096
O -0.432300 2.124456 1.232100
C 0.579236 3.450170 -0.522696
H 3.466617 -2.219632 0.108603
H 3.909838 0.995589 0.801406
H 1.630880 -2.925298 1.204273
H -0.702962 -3.744264 1.092249
H -2.506390 -2.290889 0.219869
H -3.992514 0.770926 -1.117403
H -3.835473 -0.299869 0.312242
H -3.647216 -0.973431 -1.344448
H 0.221640 4.329413 0.026784
H 0.220328 3.470119 -1.562604
H 1.680318 3.448201 -0.551265