25
Extracted from mol_294.out
O 4.490225 -0.134962 -0.228425
B 3.276473 0.347096 -0.636980
O 3.248723 1.179211 -1.715386
C 1.910269 -0.012320 0.063494
C 1.868779 -0.652475 1.314889
C 0.639351 -0.959442 1.901788
I 0.596701 -1.927864 3.802293
C -0.562313 -0.642888 1.266713
C -0.549448 0.001209 0.015894
C -1.852728 0.357867 -0.690635
C -2.686298 1.369101 0.116093
C -2.676787 -0.892547 -1.044690
C 0.690081 0.307183 -0.561134
H 4.445324 -0.766773 0.498286
H 4.130810 1.323044 -2.083969
H 2.790494 -0.904252 1.847233
H -1.511275 -0.894925 1.744547
H -1.570141 0.846114 -1.639505
H -3.020114 0.942459 1.076823
H -2.107557 2.279717 0.337590
H -3.587626 1.665758 -0.445374
H -3.578979 -0.615330 -1.614614
H -3.008961 -1.427322 -0.139065
H -2.092107 -1.599105 -1.654804
H 0.717103 0.811445 -1.531064