20
Extracted from mol_831.out
O -2.715497 -0.699177 0.747980
B -1.832712 -0.855787 -0.278814
O -2.125119 -1.469533 -1.463604
C -0.339098 -0.379684 -0.063378
C 0.031574 0.939032 0.286091
C -1.007844 2.021669 0.437973
F -1.993699 1.900211 -0.481723
F -0.479019 3.251687 0.279757
F -1.601292 2.012462 1.645202
C 1.377231 1.264526 0.485844
C 2.372231 0.295931 0.354803
C 2.022673 -1.013761 0.001523
O 2.937828 -2.001701 -0.152677
C 0.673433 -1.334553 -0.214029
H -3.621401 -0.984538 0.576699
H -3.033027 -1.784055 -1.557381
H 1.654868 2.289784 0.737085
H 3.422177 0.561237 0.515615
H 3.823897 -1.654440 0.016729
H 0.432799 -2.359307 -0.506253