19
Extracted from mol_1440.out
O 3.429230 0.482524 -0.070355
B 2.409857 -0.419551 0.049389
O 2.578732 -1.763678 0.226181
C 0.936211 0.127197 -0.022386
C -0.162002 -0.744627 0.092817
C -1.468961 -0.257531 0.024528
C -2.652204 -1.182205 0.184447
F -3.596178 -0.943786 -0.745897
F -2.303992 -2.475123 0.083039
F -3.243983 -1.022248 1.384590
C -1.708929 1.110385 -0.163283
C -0.621224 1.976868 -0.275584
Cl -0.907973 3.686918 -0.510834
C 0.690088 1.497856 -0.206544
H 4.323824 0.125155 -0.023303
H 3.489227 -2.079413 0.265454
H 0.011072 -1.812583 0.232935
H -2.727004 1.497963 -0.226112
H 1.524210 2.195878 -0.299080