19
Extracted from mol_851.out
O -3.174176 -0.013466 -0.029535
B -2.055023 -0.510741 -0.590444
O -2.175003 -1.436759 -1.589497
C -0.538044 -0.172800 -0.174695
C 0.012171 0.921338 0.545690
N -0.787395 2.024184 1.108547
O -1.981477 1.846887 1.357885
O -0.222784 3.077980 1.340234
C 1.389727 1.042784 0.774599
C 2.270263 0.070096 0.321950
C 1.767546 -1.027398 -0.391954
O 2.554684 -2.012354 -0.870437
C 0.388162 -1.120819 -0.635716
H -2.953170 0.662215 0.641607
H -3.105360 -1.620483 -1.776634
H 1.755574 1.913089 1.317858
H 3.342395 0.163413 0.520245
H 3.480246 -1.836163 -0.651899
H 0.031665 -1.971005 -1.217805