20
Extracted from mol_1707.out
O -2.082030 -0.248703 2.207828
B -1.867659 -0.646467 0.920546
O -2.591625 -1.582911 0.242228
C -0.509121 -0.166399 0.243148
C -0.440193 0.984542 -0.553331
N -1.686896 1.755435 -0.753438
O -1.648041 2.757649 -1.441841
O -2.696777 1.328162 -0.203805
C 0.725800 1.446749 -1.166930
C 1.898629 0.719780 -0.977787
C 1.883256 -0.441243 -0.188432
C 3.138722 -1.218106 0.013458
O 3.219410 -2.225812 0.674723
C 0.688480 -0.872324 0.411338
H -2.906646 -0.550643 2.607945
H -3.409096 -1.869564 0.667421
H 0.692164 2.352860 -1.771518
H 2.831670 1.051454 -1.442804
H 4.037209 -0.792961 -0.505903
H 0.722743 -1.781498 1.017154