24
Extracted from mol_956.out
O 2.814259 0.684403 -0.921751
B 2.581868 -0.255224 0.035307
O 3.635540 -0.897081 0.619531
C 1.122524 -0.660867 0.492820
C 0.930669 -1.786541 1.316153
C -0.345821 -2.199506 1.698461
C -1.466348 -1.504523 1.236603
C -1.323157 -0.375650 0.415423
S -2.799222 0.491757 -0.112535
C -2.679914 0.359617 -1.933949
C -0.021384 0.048850 0.073544
O 0.152744 1.166304 -0.732019
C 0.049333 2.429727 -0.066214
H 1.961702 1.030322 -1.242053
H 4.478428 -0.594897 0.255267
H 1.810426 -2.340212 1.653449
H -0.475417 -3.075581 2.339338
H -2.474467 -1.836148 1.497415
H -2.722818 -0.692408 -2.251631
H -3.553605 0.894407 -2.334896
H -1.757859 0.830444 -2.299891
H -0.953141 2.559729 0.369639
H 0.817886 2.519860 0.720876
H 0.217776 3.203221 -0.828883