18
Extracted from mol_1463.out
O 3.142847 -0.907131 -0.734862
B 2.330259 0.132108 -0.401309
O 2.864485 1.387670 -0.357431
C 0.819658 -0.199015 -0.083916
C 0.379059 -1.536529 -0.025283
C -0.944906 -1.857822 0.264789
C -1.895162 -0.850384 0.484355
Cl -3.512088 -1.331764 0.886796
C -1.472775 0.489557 0.416622
N -2.389270 1.634373 0.605310
O -1.906173 2.649108 1.086865
O -3.544727 1.507786 0.247351
C -0.135075 0.797064 0.152439
H 4.051387 -0.622693 -0.903825
H 2.261491 2.087555 -0.082214
H 1.097453 -2.340081 -0.204289
H -1.267768 -2.898480 0.329489
H 0.121306 1.858679 0.138031