29
Extracted from mol_228.out
O 3.817815 0.394860 1.143758
B 2.880712 0.475584 0.154025
O 3.171736 1.349495 -0.854544
C 1.593190 -0.453665 0.170102
C 1.828052 -1.837660 0.333468
C 0.778165 -2.749837 0.320750
C -0.533737 -2.297467 0.156916
C -0.788701 -0.926775 0.007911
O -2.050483 -0.431694 -0.149092
C -3.154739 -1.307831 -0.156722
C 0.269670 0.020096 0.015154
C -0.012035 1.519924 -0.109909
C -0.609261 1.910931 -1.475923
C -0.849220 2.076209 1.058040
H 3.547239 -0.199073 1.853561
H 2.515672 1.334288 -1.560321
H 2.853226 -2.201185 0.454429
H 0.970028 -3.820209 0.435962
H -1.351730 -3.017949 0.148751
H -4.048143 -0.682258 -0.289777
H -3.246544 -1.864280 0.793729
H -3.100124 -2.033469 -0.988550
H 0.966669 2.019315 -0.045925
H -1.608488 1.475922 -1.620419
H 0.028630 1.564069 -2.306945
H -0.695855 3.007349 -1.557026
H -0.384700 1.833482 2.027449
H -0.917740 3.174485 0.985530
H -1.869303 1.667348 1.055622