30
Extracted from mol_601.out
O 5.827592 0.756718 1.367597
B 5.237098 0.081542 0.340146
O 6.053946 -0.554211 -0.558193
C 3.668632 0.077453 0.256247
C 2.957652 -0.585138 -0.755558
C 1.558681 -0.578507 -0.814181
C 0.817103 0.106557 0.159555
O -0.529519 0.188859 0.216369
C -1.308525 -0.458110 -0.788045
C -2.767210 -0.211929 -0.500366
C -3.404266 0.937976 -0.989990
C -4.748007 1.185710 -0.698251
C -5.470389 0.284129 0.090247
C -4.843902 -0.863924 0.585359
C -3.499492 -1.108032 0.291949
C 1.528739 0.775780 1.180729
F 0.826495 1.432413 2.113061
C 2.910617 0.763859 1.230877
H 6.791571 0.698930 1.330785
H 5.585249 -1.014374 -1.263340
H 3.490691 -1.134757 -1.539571
H 1.051582 -1.109216 -1.620414
H -1.091622 -1.541954 -0.787664
H -1.037581 -0.058476 -1.782552
H -2.840477 1.646078 -1.604475
H -5.233425 2.084593 -1.087681
H -6.522501 0.475796 0.317759
H -5.404108 -1.571578 1.202368
H -3.010756 -2.005269 0.683184
H 3.406133 1.299085 2.043965