34
Extracted from mol_666.out
O -4.447237 -2.395026 0.107622
B -4.496025 -1.150555 -0.430902
O -5.709791 -0.666014 -0.836373
C -3.250810 -0.174109 -0.618603
C -3.531833 1.102190 -1.152929
C -2.531318 2.053119 -1.328698
C -1.209259 1.764875 -0.978740
C -0.890428 0.504113 -0.457317
O 0.366044 0.144239 -0.089356
C 1.467568 0.979521 -0.397948
C 2.755812 0.265687 -0.056692
C 2.847173 -1.133142 -0.110853
C 4.061939 -1.770293 0.159719
C 5.197911 -1.020704 0.481350
C 5.112129 0.373823 0.538352
C 3.896396 1.011331 0.275645
C -1.910648 -0.465403 -0.275328
S -1.409586 -2.095670 0.308327
C -0.949777 -1.756260 2.047566
H -3.529750 -2.644986 0.339396
H -6.408329 -1.316226 -0.684011
H -4.562602 1.336731 -1.423805
H -2.773708 3.037283 -1.739248
H -0.436750 2.522400 -1.114073
H 1.447751 1.232252 -1.476820
H 1.403186 1.932323 0.160547
H 1.957206 -1.717074 -0.354778
H 4.120639 -2.861473 0.118468
H 6.146562 -1.521793 0.691820
H 5.992649 0.968309 0.796630
H 3.834035 2.102718 0.332989
H -0.093584 -1.069727 2.080113
H -0.662629 -2.723944 2.484627
H -1.802936 -1.342187 2.603303