25
Extracted from mol_63.out
O 1.787041 -2.185012 0.057827
B 0.555438 -2.013396 -0.501354
O 0.021633 -3.070753 -1.190582
C -0.233837 -0.660957 -0.314247
C 0.396035 0.585308 -0.171600
O 1.779259 0.656675 -0.286665
C 2.537792 0.754467 0.849786
O 2.072958 0.921054 1.942767
C 3.996151 0.602772 0.508191
C -0.335651 1.761125 0.001943
C -1.728041 1.707964 0.044968
C -2.411411 0.487570 -0.088968
C -3.918776 0.433495 -0.018851
C -1.643191 -0.669152 -0.272752
H 2.130728 -3.072384 -0.116334
H -0.815385 -2.866911 -1.624096
H 4.256729 1.210473 -0.370780
H 4.175639 -0.452597 0.248197
H 4.611708 0.881686 1.372167
H 0.193250 2.711325 0.099221
H -2.295037 2.633417 0.184982
H -4.381372 1.170493 -0.696001
H -4.302180 -0.561794 -0.290510
H -4.279872 0.661377 0.999127
H -2.169605 -1.626246 -0.366434