16
Extracted from mol_1261.out
O 2.852607 -0.833333 -0.790697
B 2.124164 0.111334 -0.134659
O 2.827481 1.130720 0.430587
C 0.542316 0.028516 -0.034355
C -0.217914 -0.513039 -1.087748
C -1.606409 -0.572798 -0.984633
F -2.317056 -1.079745 -1.999335
C -2.285556 -0.119760 0.144836
C -1.520609 0.409037 1.182800
F -2.146594 0.845837 2.282342
C -0.131558 0.494899 1.109877
H 2.326539 -1.583293 -1.090320
H 2.268439 1.823879 0.799360
H 0.249342 -0.875618 -2.007062
H -3.372618 -0.176792 0.213584
H 0.407428 0.910159 1.965424