19
Extracted from mol_786.out
O 3.377400 0.371502 0.336326
B 2.264131 0.825547 -0.290730
O 2.443392 1.848603 -1.173910
C 0.817855 0.205075 -0.019594
C -0.312800 0.684224 -0.689912
C -1.604425 0.170244 -0.484557
C -2.756349 0.726186 -1.228911
O -2.686277 1.624699 -2.037732
C -1.779463 -0.874176 0.434359
C -0.684537 -1.385127 1.125177
C 0.593701 -0.852077 0.899828
O 1.671877 -1.346492 1.571778
H 3.174401 -0.349724 0.948356
H 1.639941 2.159429 -1.603469
H -0.233567 1.497683 -1.418547
H -3.740978 0.243908 -0.988390
H -2.777596 -1.288173 0.608329
H -0.813744 -2.200958 1.843915
H 1.407039 -2.060373 2.167684